*SPEF "ieee 1481-1999"
*DESIGN "io_pad_wrapper"
*DATE "06:13:09 Sunday July 26, 2026"
*VENDOR "The OpenROAD Project"
*PROGRAM "OpenROAD"
*VERSION "b16bda7e82721d10566ff7e2b68f1ff0be9f9e38"
*DESIGN_FLOW "NAME_SCOPE LOCAL" "PIN_CAP NONE"
*DIVIDER /
*DELIMITER :
*BUS_DELIMITER []
*T_UNIT 1 NS
*C_UNIT 1 PF
*R_UNIT 1 OHM
*L_UNIT 1 HENRY

*NAME_MAP
*3 clk
*4 core_din
*5 core_dout
*6 pad_din_raw
*7 pad_dout
*8 pad_oe
*9 pad_pd_en
*10 pad_pu_en
*11 pad_schmitt_en
*12 pad_slew[0]
*13 pad_slew[1]
*14 reg_addr[0]
*15 reg_addr[1]
*16 reg_rdata[0]
*17 reg_rdata[1]
*18 reg_rdata[2]
*19 reg_rdata[3]
*20 reg_rdata[4]
*21 reg_rdata[5]
*22 reg_rdata[6]
*23 reg_rdata[7]
*24 reg_wdata[0]
*25 reg_wdata[1]
*26 reg_wdata[2]
*27 reg_wdata[3]
*28 reg_wdata[4]
*29 reg_wdata[5]
*30 reg_wdata[6]
*31 reg_wdata[7]
*32 reg_we
*33 rst_n
*34 _00_
*35 _01_
*36 _02_
*37 _03_
*38 _04_
*39 _05_
*40 _06_
*41 _07_
*42 _08_
*43 _09_
*44 _10_
*45 _11_
*46 _12_
*47 _13_
*48 clknet_0_clk
*49 clknet_1_0__leaf_clk
*50 clknet_1_1__leaf_clk
*51 ie
*52 loopback_en
*53 sync_ff1
*54 FILLER_0_0_15
*55 FILLER_0_0_29
*56 FILLER_0_0_3
*57 FILLER_0_0_46
*58 FILLER_0_0_57
*59 FILLER_0_10_15
*60 FILLER_0_10_27
*61 FILLER_0_10_29
*62 FILLER_0_10_3
*63 FILLER_0_10_41
*64 FILLER_0_10_45
*65 FILLER_0_10_55
*66 FILLER_0_10_57
*67 FILLER_0_1_3
*68 FILLER_0_1_34
*69 FILLER_0_1_55
*70 FILLER_0_1_57
*71 FILLER_0_2_29
*72 FILLER_0_2_3
*73 FILLER_0_2_58
*74 FILLER_0_2_62
*75 FILLER_0_3_3
*76 FILLER_0_4_24
*77 FILLER_0_4_3
*78 FILLER_0_4_35
*79 FILLER_0_4_58
*80 FILLER_0_4_62
*81 FILLER_0_4_7
*82 FILLER_0_5_3
*83 FILLER_0_5_48
*84 FILLER_0_6_29
*85 FILLER_0_6_3
*86 FILLER_0_6_61
*87 FILLER_0_7_3
*88 FILLER_0_8_15
*89 FILLER_0_8_27
*90 FILLER_0_8_29
*91 FILLER_0_8_3
*92 FILLER_0_8_58
*93 FILLER_0_8_62
*94 FILLER_0_9_14
*95 FILLER_0_9_3
*96 FILLER_0_9_55
*97 FILLER_0_9_57
*98 FILLER_0_9_9
*99 PHY_EDGE_ROW_0_Left_11
*100 PHY_EDGE_ROW_0_Right_0
*101 PHY_EDGE_ROW_10_Left_21
*102 PHY_EDGE_ROW_10_Right_10
*103 PHY_EDGE_ROW_1_Left_12
*104 PHY_EDGE_ROW_1_Right_1
*105 PHY_EDGE_ROW_2_Left_13
*106 PHY_EDGE_ROW_2_Right_2
*107 PHY_EDGE_ROW_3_Left_14
*108 PHY_EDGE_ROW_3_Right_3
*109 PHY_EDGE_ROW_4_Left_15
*110 PHY_EDGE_ROW_4_Right_4
*111 PHY_EDGE_ROW_5_Left_16
*112 PHY_EDGE_ROW_5_Right_5
*113 PHY_EDGE_ROW_6_Left_17
*114 PHY_EDGE_ROW_6_Right_6
*115 PHY_EDGE_ROW_7_Left_18
*116 PHY_EDGE_ROW_7_Right_7
*117 PHY_EDGE_ROW_8_Left_19
*118 PHY_EDGE_ROW_8_Right_8
*119 PHY_EDGE_ROW_9_Left_20
*120 PHY_EDGE_ROW_9_Right_9
*121 TAP_TAPCELL_ROW_0_22
*122 TAP_TAPCELL_ROW_0_23
*123 TAP_TAPCELL_ROW_10_33
*124 TAP_TAPCELL_ROW_10_34
*125 TAP_TAPCELL_ROW_1_24
*126 TAP_TAPCELL_ROW_2_25
*127 TAP_TAPCELL_ROW_3_26
*128 TAP_TAPCELL_ROW_4_27
*129 TAP_TAPCELL_ROW_5_28
*130 TAP_TAPCELL_ROW_6_29
*131 TAP_TAPCELL_ROW_7_30
*132 TAP_TAPCELL_ROW_8_31
*133 TAP_TAPCELL_ROW_9_32
*134 _14_
*135 _15_
*136 _16_
*137 _17_
*138 _18_
*139 _19_
*140 _20_
*141 _21_
*142 _22_
*143 _23_
*144 _24_
*145 _25_
*146 _26_
*147 _27_
*148 _28_
*149 _29_
*150 _30_
*151 _31_
*152 _32_
*153 _33_
*154 _34_
*155 _35_
*156 _36_
*157 _37_
*158 _38_
*159 _39_
*160 _40_
*161 _41_
*162 _42_
*163 _43_
*164 _44_
*165 _45_
*166 _46_
*167 clkbuf_0_clk
*168 clkbuf_1_0__f_clk
*169 clkbuf_1_1__f_clk
*170 clkload0

*PORTS
clk I
core_din O
core_dout I
pad_din_raw I
pad_dout O
pad_oe O
pad_pd_en O
pad_pu_en O
pad_schmitt_en O
pad_slew[0] O
pad_slew[1] O
reg_addr[0] I
reg_addr[1] I
reg_rdata[0] O
reg_rdata[1] O
reg_rdata[2] O
reg_rdata[3] O
reg_rdata[4] O
reg_rdata[5] O
reg_rdata[6] O
reg_rdata[7] O
reg_wdata[0] I
reg_wdata[1] I
reg_wdata[2] I
reg_wdata[3] I
reg_wdata[4] I
reg_wdata[5] I
reg_wdata[6] I
reg_wdata[7] I
reg_we I
rst_n I

*D_NET *3 0.00423835
*CONN
*P clk I
*I *167:A I *D sky130_fd_sc_hd__clkbuf_16
*CAP
1 clk 0.00170566
2 *167:A 0.00170566
3 *167:A core_din 0.000228862
4 *167:A *156:D 0
5 *167:A *161:CLK 3.34295e-05
6 *167:A *33:67 5.41054e-05
7 *167:A *47:53 0.000229443
8 *167:A *50:24 0
9 *167:A *50:34 0.00015304
10 *167:A *50:36 0.000128154
*RES
1 clk *167:A 42.0852 
*END

*D_NET *4 0.00507438
*CONN
*P core_din O
*I *137:B2 I *D sky130_fd_sc_hd__a22o_2
*I *164:Q O *D sky130_fd_sc_hd__dfrtp_2
*CAP
1 core_din 0.00118043
2 *137:B2 0.000264808
3 *164:Q 0.000395922
4 *4:8 0.00184116
5 core_din pad_pd_en 5.6912e-05
6 core_din *136:A1 0
7 core_din *136:B2 6.21521e-06
8 core_din *145:S 5.60756e-05
9 core_din *148:A1 6.70397e-05
10 core_din *5:9 0.000141438
11 core_din *8:8 8.49861e-06
12 core_din *8:23 5.10502e-05
13 core_din *33:67 0
14 *137:B2 pad_pd_en 0.000368212
15 *137:B2 reg_rdata[0] 8.67728e-05
16 *137:B2 *137:A2 1.97695e-05
17 *137:B2 *137:B1 9.90431e-05
18 *137:B2 *145:S 0.000129653
19 *137:B2 *44:46 7.25149e-05
20 *167:A core_din 0.000228862
*RES
1 *164:Q *4:8 18.0321 
2 *4:8 *137:B2 22.0857 
3 *4:8 core_din 21.7967 
*END

*D_NET *5 0.00255932
*CONN
*P core_dout I
*I *166:A I *D sky130_fd_sc_hd__buf_2
*I *145:A1 I *D sky130_fd_sc_hd__mux2_1
*CAP
1 core_dout 0.000535883
2 *166:A 2.61003e-05
3 *145:A1 0.000198033
4 *5:9 0.000760016
5 *145:A1 *136:B2 7.43578e-06
6 *145:A1 *146:B 0
7 *145:A1 *148:A1 0
8 *145:A1 *165:D 7.83659e-05
9 *145:A1 *6:13 0.000372851
10 *145:A1 *8:23 0
11 *166:A pad_dout 2.89114e-05
12 *5:9 *6:13 0.00041029
13 core_din *5:9 0.000141438
*RES
1 core_dout *5:9 11.4338 
2 *5:9 *145:A1 18.7107 
3 *5:9 *166:A 14.3357 
*END

*D_NET *6 0.00417772
*CONN
*P pad_din_raw I
*I *136:B2 I *D sky130_fd_sc_hd__a22o_2
*I *145:A0 I *D sky130_fd_sc_hd__mux2_1
*CAP
1 pad_din_raw 0.000605175
2 *136:B2 0.000298848
3 *145:A0 0
4 *6:13 0.000904023
5 *136:B2 *136:A1 0.00059616
6 *136:B2 *145:S 0.000830901
7 *6:13 pad_dout 6.37275e-05
8 *6:13 pad_oe 0
9 *6:13 *145:S 5.71472e-05
10 *6:13 *165:D 2.49484e-05
11 core_din *136:B2 6.21521e-06
12 *145:A1 *136:B2 7.43578e-06
13 *145:A1 *6:13 0.000372851
14 *5:9 *6:13 0.00041029
*RES
1 pad_din_raw *6:13 18.2189 
2 *6:13 *145:A0 9.3 
3 *6:13 *136:B2 28.6036 
*END

*D_NET *7 0.00119302
*CONN
*P pad_dout O
*I *166:X O *D sky130_fd_sc_hd__buf_2
*CAP
1 pad_dout 0.000517038
2 *166:X 0.000517038
3 pad_dout pad_oe 6.63071e-05
4 *166:A pad_dout 2.89114e-05
5 *6:13 pad_dout 6.37275e-05
*RES
1 *166:X pad_dout 22.6216 
*END

*D_NET *8 0.0038815
*CONN
*P pad_oe O
*I *148:A1 I *D sky130_fd_sc_hd__mux2_1
*I *136:A1 I *D sky130_fd_sc_hd__a22o_2
*I *156:Q O *D sky130_fd_sc_hd__dfrtp_2
*CAP
1 pad_oe 0.000361471
2 *148:A1 0.000469799
3 *136:A1 0.000410298
4 *156:Q 4.16602e-06
5 *8:23 0.000902946
6 *8:8 0.00048614
7 pad_oe pad_pd_en 0.000193482
8 *136:A1 pad_pu_en 0
9 *136:A1 reg_rdata[0] 5.33334e-05
10 *136:A1 *137:B1 5.52302e-05
11 *136:A1 *146:B 2.21972e-05
12 *136:A1 *165:D 0
13 *136:A1 *10:12 2.28499e-05
14 *136:A1 *44:38 0
15 *148:A1 *148:S 5.52302e-05
16 *8:23 *146:B 5.53052e-05
17 core_din *136:A1 0
18 core_din *148:A1 6.70397e-05
19 core_din *8:8 8.49861e-06
20 core_din *8:23 5.10502e-05
21 pad_dout pad_oe 6.63071e-05
22 *136:B2 *136:A1 0.00059616
23 *145:A1 *148:A1 0
24 *145:A1 *8:23 0
25 *6:13 pad_oe 0
*RES
1 *156:Q *8:8 14.0768 
2 *8:8 *136:A1 23.7554 
3 *8:8 *8:23 1.94643 
4 *8:23 pad_oe 4.91087 
5 *8:23 *148:A1 22.0768 
*END

*D_NET *9 0.00571452
*CONN
*P pad_pd_en O
*I *150:A1 I *D sky130_fd_sc_hd__mux2_1
*I *138:A I *D sky130_fd_sc_hd__and2_2
*I *158:Q O *D sky130_fd_sc_hd__dfrtp_2
*CAP
1 pad_pd_en 0.00102875
2 *150:A1 0.000213309
3 *138:A 0.000122897
4 *158:Q 0
5 *9:21 0.00157457
6 *9:4 0.000455407
7 pad_pd_en pad_pu_en 0.000113185
8 pad_pd_en pad_schmitt_en 0
9 pad_pd_en reg_rdata[0] 0.000254271
10 pad_pd_en reg_rdata[1] 9.89226e-05
11 pad_pd_en *149:A0 7.55769e-05
12 pad_pd_en *164:D 0
13 pad_pd_en *33:67 0
14 pad_pd_en *33:71 0
15 *138:A *138:B 0
16 *138:A *145:S 0.000138005
17 *138:A *45:12 9.25014e-06
18 *150:A1 *157:D 5.52302e-05
19 *150:A1 *159:CLK 0
20 *150:A1 *32:21 2.44318e-05
21 *150:A1 *47:17 0.000135028
22 *150:A1 *47:39 0.000215102
23 *9:21 reg_rdata[0] 0.000291844
24 *9:21 *149:A0 0.000290129
25 core_din pad_pd_en 5.6912e-05
26 pad_oe pad_pd_en 0.000193482
27 *137:B2 pad_pd_en 0.000368212
*RES
1 *158:Q *9:4 9.3 
2 *9:4 *138:A 21.4607 
3 *9:4 *9:21 10.8571 
4 *9:21 *150:A1 18.05 
5 *9:21 pad_pd_en 15.2623 
*END

*D_NET *10 0.00362222
*CONN
*P pad_pu_en O
*I *137:A1 I *D sky130_fd_sc_hd__a22o_2
*I *149:A1 I *D sky130_fd_sc_hd__mux2_1
*I *157:Q O *D sky130_fd_sc_hd__dfrtp_2
*CAP
1 pad_pu_en 0.000476885
2 *137:A1 8.88136e-05
3 *149:A1 0.000144099
4 *157:Q 0.000178283
5 *10:12 0.000527144
6 *10:8 0.000949399
7 pad_pu_en pad_schmitt_en 0.000131724
8 pad_pu_en *165:D 4.23556e-05
9 pad_pu_en *44:19 5.83304e-05
10 pad_pu_en *44:38 5.643e-05
11 *137:A1 reg_rdata[0] 9.99644e-06
12 *137:A1 *137:B1 5.52302e-05
13 *149:A1 reg_rdata[0] 3.69697e-05
14 *149:A1 *145:S 7.83587e-05
15 *149:A1 *32:21 7.32173e-05
16 *10:8 *138:B 0.000170484
17 *10:8 *15:20 7.85681e-05
18 *10:8 *44:19 9.18513e-05
19 *10:12 reg_rdata[0] 1.67131e-05
20 *10:12 *136:A2 3.9534e-05
21 *10:12 *137:B1 0.000181796
22 pad_pd_en pad_pu_en 0.000113185
23 *136:A1 pad_pu_en 0
24 *136:A1 *10:12 2.28499e-05
*RES
1 *157:Q *10:8 17.2643 
2 *10:8 *10:12 8.32143 
3 *10:12 *149:A1 20.6929 
4 *10:12 *137:A1 10.675 
5 *10:8 pad_pu_en 9.23676 
*END

*D_NET *11 0.00752375
*CONN
*P pad_schmitt_en O
*I *154:A1 I *D sky130_fd_sc_hd__mux2_1
*I *142:A I *D sky130_fd_sc_hd__and2_2
*I *162:Q O *D sky130_fd_sc_hd__dfrtp_2
*CAP
1 pad_schmitt_en 0.00202591
2 *154:A1 0.000460519
3 *142:A 0
4 *162:Q 5.05962e-05
5 *11:10 0.00210676
6 *11:8 0.000591958
7 pad_schmitt_en pad_slew[0] 0.000314776
8 pad_schmitt_en reg_rdata[4] 0.000956797
9 pad_schmitt_en *139:A 9.68036e-05
10 pad_schmitt_en *141:B 4.04292e-05
11 pad_schmitt_en *142:B 0.000193592
12 pad_schmitt_en *143:A 1.94879e-05
13 pad_schmitt_en *153:A0 0
14 pad_schmitt_en *13:12 5.38886e-05
15 pad_schmitt_en *33:43 0
16 pad_schmitt_en *44:76 0.000164766
17 *154:A1 reg_rdata[3] 0.000202615
18 *154:A1 *154:S 0
19 *154:A1 *162:RESET_B 7.79781e-06
20 *154:A1 *47:64 0
21 *11:10 reg_rdata[3] 6.16744e-05
22 *11:10 *142:B 3.51442e-05
23 *11:10 *162:RESET_B 8.50795e-06
24 *11:10 *33:43 0
25 pad_pd_en pad_schmitt_en 0
26 pad_pu_en pad_schmitt_en 0.000131724
*RES
1 *162:Q *11:8 14.3357 
2 *11:8 *11:10 1.94643 
3 *11:10 pad_schmitt_en 13.3787 
4 *11:10 *142:A 13.8 
5 *11:8 *154:A1 21.3714 
*END

*D_NET *12 0.00748435
*CONN
*P pad_slew[0] O
*I *139:A I *D sky130_fd_sc_hd__and2_2
*I *151:A1 I *D sky130_fd_sc_hd__mux2_1
*I *159:Q O *D sky130_fd_sc_hd__dfrtp_2
*CAP
1 pad_slew[0] 0.00168632
2 *139:A 0.000232922
3 *151:A1 0.000381759
4 *159:Q 0
5 *12:8 0.00219992
6 *12:4 0.000364772
7 pad_slew[0] pad_slew[1] 0.000320302
8 pad_slew[0] *149:A0 0
9 pad_slew[0] *150:A0 5.58875e-06
10 pad_slew[0] *151:A0 2.59123e-05
11 pad_slew[0] *153:A0 0.000162047
12 *139:A *143:A 0.000413289
13 *139:A *159:RESET_B 3.69047e-06
14 *139:A *13:12 5.83304e-05
15 *139:A *33:19 7.86602e-05
16 *139:A *33:29 0.000125375
17 *139:A *33:43 0.000325368
18 *151:A1 *150:A0 0.000513537
19 *151:A1 *151:A0 9.90431e-05
20 *151:A1 *151:S 2.44318e-05
21 *151:A1 *33:9 0
22 *151:A1 *33:19 0
23 *12:8 *159:RESET_B 5.14962e-05
24 pad_schmitt_en pad_slew[0] 0.000314776
25 pad_schmitt_en *139:A 9.68036e-05
*RES
1 *159:Q *12:4 9.3 
2 *12:4 *12:8 6.67857 
3 *12:8 *151:A1 22.5679 
4 *12:8 pad_slew[0] 7.83845 
5 *12:4 *139:A 26.55 
*END

*D_NET *13 0.00588091
*CONN
*P pad_slew[1] O
*I *152:A1 I *D sky130_fd_sc_hd__mux2_1
*I *140:A I *D sky130_fd_sc_hd__and2_2
*I *160:Q O *D sky130_fd_sc_hd__dfrtp_2
*CAP
1 pad_slew[1] 0.0011512
2 *152:A1 0
3 *140:A 0
4 *160:Q 0.000169212
5 *13:24 0.00174008
6 *13:12 0.000758089
7 pad_slew[1] *140:B 0.00010487
8 pad_slew[1] *144:B 0.000147332
9 pad_slew[1] *149:A0 0.000134115
10 pad_slew[1] *158:D 0.000161127
11 pad_slew[1] *159:CLK 0
12 pad_slew[1] *161:D 0
13 pad_slew[1] *168:A 0
14 pad_slew[1] *14:9 6.92776e-05
15 pad_slew[1] *15:9 0
16 pad_slew[1] *32:21 3.78126e-05
17 pad_slew[1] *33:71 0
18 pad_slew[1] *47:53 0.000273866
19 pad_slew[1] *51:29 0
20 *13:12 *152:A0 7.43578e-06
21 *13:12 *33:43 0.000202842
22 *13:12 *47:60 1.74352e-05
23 *13:24 reg_rdata[4] 5.49489e-05
24 *13:24 *152:A0 3.18676e-05
25 *13:24 *153:A0 0.000119115
26 *13:24 *153:A1 5.86157e-05
27 *13:24 *161:D 4.82865e-05
28 *13:24 *47:53 0.000103572
29 *13:24 *47:60 5.72899e-05
30 pad_schmitt_en *13:12 5.38886e-05
31 pad_slew[0] pad_slew[1] 0.000320302
32 *139:A *13:12 5.83304e-05
*RES
1 *160:Q *13:12 22.2107 
2 *13:12 *13:24 10.1786 
3 *13:24 pad_slew[1] 20.555 
4 *13:24 *140:A 9.3 
5 *13:12 *152:A1 9.3 
*END

*D_NET *14 0.00217362
*CONN
*P reg_addr[0] I
*I *147:B I *D sky130_fd_sc_hd__or3b_2
*I *134:B I *D sky130_fd_sc_hd__nor2_2
*I *135:B I *D sky130_fd_sc_hd__and2b_2
*CAP
1 reg_addr[0] 0.000144645
2 *147:B 0.000105962
3 *134:B 5.02276e-05
4 *135:B 0.000210962
5 *14:24 0.000619994
6 *14:9 0.000819411
7 *134:B *147:A 2.01466e-05
8 *147:B *147:A 4.29335e-05
9 *14:9 *15:9 7.60209e-05
10 *14:24 *147:A 1.40415e-05
11 *14:24 *15:9 0
12 *14:24 *15:20 0
13 pad_slew[1] *14:9 6.92776e-05
*RES
1 reg_addr[0] *14:9 4.55436 
2 *14:9 *135:B 16.8 
3 *14:9 *14:24 11.3571 
4 *14:24 *134:B 10.3357 
5 *14:24 *147:B 10.6571 
*END

*D_NET *15 0.0021044
*CONN
*P reg_addr[1] I
*I *147:A I *D sky130_fd_sc_hd__or3b_2
*I *134:A I *D sky130_fd_sc_hd__nor2_2
*I *135:A_N I *D sky130_fd_sc_hd__and2b_2
*CAP
1 reg_addr[1] 0.000371101
2 *147:A 0.000189324
3 *134:A 0
4 *135:A_N 0
5 *15:20 0.000421453
6 *15:9 0.000603231
7 *15:9 reg_rdata[0] 0.000114876
8 *15:9 *138:B 7.49332e-05
9 *15:20 *138:B 9.777e-05
10 pad_slew[1] *15:9 0
11 *134:B *147:A 2.01466e-05
12 *147:B *147:A 4.29335e-05
13 *10:8 *15:20 7.85681e-05
14 *14:9 *15:9 7.60209e-05
15 *14:24 *147:A 1.40415e-05
16 *14:24 *15:9 0
17 *14:24 *15:20 0
*RES
1 reg_addr[1] *15:9 8.18191 
2 *15:9 *135:A_N 13.8 
3 *15:9 *15:20 9.78571 
4 *15:20 *134:A 9.3 
5 *15:20 *147:A 12.8714 
*END

*D_NET *16 0.00432371
*CONN
*P reg_rdata[0] O
*I *136:X O *D sky130_fd_sc_hd__a22o_2
*CAP
1 reg_rdata[0] 0.000975997
2 *136:X 0.000975997
3 reg_rdata[0] reg_rdata[1] 0.00043923
4 reg_rdata[0] reg_rdata[2] 0.000312798
5 reg_rdata[0] *136:A2 3.9534e-05
6 reg_rdata[0] *137:A2 8.27532e-05
7 reg_rdata[0] *137:B1 2.77173e-05
8 reg_rdata[0] *145:S 0.000247243
9 reg_rdata[0] *149:A0 4.83992e-05
10 reg_rdata[0] *44:38 0.000309266
11 pad_pd_en reg_rdata[0] 0.000254271
12 *136:A1 reg_rdata[0] 5.33334e-05
13 *137:A1 reg_rdata[0] 9.99644e-06
14 *137:B2 reg_rdata[0] 8.67728e-05
15 *149:A1 reg_rdata[0] 3.69697e-05
16 *9:21 reg_rdata[0] 0.000291844
17 *10:12 reg_rdata[0] 1.67131e-05
18 *15:9 reg_rdata[0] 0.000114876
*RES
1 *136:X reg_rdata[0] 38.0795 
*END

*D_NET *17 0.00401274
*CONN
*P reg_rdata[1] O
*I *137:X O *D sky130_fd_sc_hd__a22o_2
*CAP
1 reg_rdata[1] 0.000967528
2 *137:X 0.000967528
3 reg_rdata[1] reg_rdata[2] 0.000228862
4 reg_rdata[1] *149:A0 0.000443247
5 reg_rdata[1] *155:A0 0.000316572
6 reg_rdata[1] *33:71 0
7 reg_rdata[1] *47:23 0.000550852
8 pad_pd_en reg_rdata[1] 9.89226e-05
9 reg_rdata[0] reg_rdata[1] 0.00043923
*RES
1 *137:X reg_rdata[1] 37.0993 
*END

*D_NET *18 0.00291388
*CONN
*P reg_rdata[2] O
*I *138:X O *D sky130_fd_sc_hd__and2_2
*CAP
1 reg_rdata[2] 0.00113129
2 *138:X 0.00113129
3 reg_rdata[2] *138:B 5.62995e-05
4 reg_rdata[2] *145:S 5.33334e-05
5 reg_rdata[0] reg_rdata[2] 0.000312798
6 reg_rdata[1] reg_rdata[2] 0.000228862
*RES
1 *138:X reg_rdata[2] 32.3289 
*END

*D_NET *19 0.00296491
*CONN
*P reg_rdata[3] O
*I *139:X O *D sky130_fd_sc_hd__and2_2
*CAP
1 reg_rdata[3] 0.00101513
2 *139:X 0.00101513
3 reg_rdata[3] reg_rdata[6] 0.000342259
4 reg_rdata[3] reg_rdata[7] 6.27457e-05
5 reg_rdata[3] *142:B 0.000153047
6 reg_rdata[3] *152:A0 0.000112303
7 reg_rdata[3] *154:S 0
8 *154:A1 reg_rdata[3] 0.000202615
9 *11:10 reg_rdata[3] 6.16744e-05
*RES
1 *139:X reg_rdata[3] 37.7676 
*END

*D_NET *20 0.00322392
*CONN
*P reg_rdata[4] O
*I *140:X O *D sky130_fd_sc_hd__and2_2
*CAP
1 reg_rdata[4] 0.000960507
2 *140:X 0.000960507
3 reg_rdata[4] reg_rdata[5] 0.000110114
4 reg_rdata[4] reg_rdata[7] 7.28007e-05
5 reg_rdata[4] *140:B 4.218e-05
6 reg_rdata[4] *153:A0 0
7 reg_rdata[4] *51:29 6.606e-05
8 pad_schmitt_en reg_rdata[4] 0.000956797
9 *13:24 reg_rdata[4] 5.49489e-05
*RES
1 *140:X reg_rdata[4] 22.3572 
*END

*D_NET *21 0.000846027
*CONN
*P reg_rdata[5] O
*I *141:X O *D sky130_fd_sc_hd__and2_2
*CAP
1 reg_rdata[5] 0.000273749
2 *141:X 0.000273749
3 reg_rdata[5] *141:B 9.55387e-05
4 reg_rdata[5] *153:A0 9.28756e-05
5 reg_rdata[4] reg_rdata[5] 0.000110114
*RES
1 *141:X reg_rdata[5] 21.2306 
*END

*D_NET *22 0.00150229
*CONN
*P reg_rdata[6] O
*I *142:X O *D sky130_fd_sc_hd__and2_2
*CAP
1 reg_rdata[6] 0.000491949
2 *142:X 0.000491949
3 reg_rdata[6] *154:A0 8.32614e-05
4 reg_rdata[6] *32:21 9.28756e-05
5 reg_rdata[3] reg_rdata[6] 0.000342259
*RES
1 *142:X reg_rdata[6] 26.0878 
*END

*D_NET *23 0.000935497
*CONN
*P reg_rdata[7] O
*I *143:X O *D sky130_fd_sc_hd__and2_2
*CAP
1 reg_rdata[7] 0.000316724
2 *143:X 0.000316724
3 reg_rdata[7] *142:B 2.78822e-05
4 reg_rdata[7] *148:A0 9.28756e-05
5 reg_rdata[7] *44:76 4.57445e-05
6 reg_rdata[3] reg_rdata[7] 6.27457e-05
7 reg_rdata[4] reg_rdata[7] 7.28007e-05
*RES
1 *143:X reg_rdata[7] 21.8378 
*END

*D_NET *24 0.00301374
*CONN
*P reg_wdata[0] I
*I *148:A0 I *D sky130_fd_sc_hd__mux2_1
*CAP
1 reg_wdata[0] 0.00105093
2 *148:A0 0.00105093
3 *148:A0 *148:S 0.00011959
4 *148:A0 *156:D 0.000115206
5 *148:A0 *169:A 0.000370924
6 *148:A0 *32:21 0.000213282
7 reg_rdata[7] *148:A0 9.28756e-05
*RES
1 reg_wdata[0] *148:A0 26.0304 
*END

*D_NET *25 0.00442223
*CONN
*P reg_wdata[1] I
*I *149:A0 I *D sky130_fd_sc_hd__mux2_1
*CAP
1 reg_wdata[1] 0.00154032
2 *149:A0 0.00154032
3 *149:A0 *150:A0 8.08778e-05
4 *149:A0 *151:A0 0.000269252
5 pad_pd_en *149:A0 7.55769e-05
6 pad_slew[0] *149:A0 0
7 pad_slew[1] *149:A0 0.000134115
8 reg_rdata[0] *149:A0 4.83992e-05
9 reg_rdata[1] *149:A0 0.000443247
10 *9:21 *149:A0 0.000290129
*RES
1 reg_wdata[1] *149:A0 26.7424 
*END

*D_NET *26 0.00430024
*CONN
*P reg_wdata[2] I
*I *150:A0 I *D sky130_fd_sc_hd__mux2_1
*CAP
1 reg_wdata[2] 0.00132446
2 *150:A0 0.00132446
3 *150:A0 *151:A0 0.000369507
4 *150:A0 *153:A0 4.38243e-05
5 *150:A0 *155:A0 0.000218612
6 *150:A0 *159:CLK 1.11454e-05
7 *150:A0 *159:D 0.000312107
8 *150:A0 *168:A 0
9 *150:A0 *32:21 9.61255e-05
10 *150:A0 *33:9 0
11 *150:A0 *33:29 0
12 pad_slew[0] *150:A0 5.58875e-06
13 *149:A0 *150:A0 8.08778e-05
14 *151:A1 *150:A0 0.000513537
*RES
1 reg_wdata[2] *150:A0 36.3104 
*END

*D_NET *27 0.00258684
*CONN
*P reg_wdata[3] I
*I *151:A0 I *D sky130_fd_sc_hd__mux2_1
*CAP
1 reg_wdata[3] 0.000553106
2 *151:A0 0.000553106
3 *151:A0 *151:S 0.00018077
4 *151:A0 *153:A0 0.000198911
5 *151:A0 *159:D 0.00030417
6 *151:A0 *170:A 3.30575e-05
7 pad_slew[0] *151:A0 2.59123e-05
8 *149:A0 *151:A0 0.000269252
9 *150:A0 *151:A0 0.000369507
10 *151:A1 *151:A0 9.90431e-05
*RES
1 reg_wdata[3] *151:A0 25.5253 
*END

*D_NET *28 0.00361107
*CONN
*P reg_wdata[4] I
*I *152:A0 I *D sky130_fd_sc_hd__mux2_1
*CAP
1 reg_wdata[4] 0.00102399
2 *152:A0 0.00102399
3 *152:A0 *154:A0 0.000576094
4 *152:A0 *154:S 0.000212771
5 *152:A0 *162:D 0
6 *152:A0 *32:21 0
7 *152:A0 *33:43 1.08359e-05
8 *152:A0 *47:60 5.52238e-05
9 *152:A0 *47:64 0.000556567
10 reg_rdata[3] *152:A0 0.000112303
11 *13:12 *152:A0 7.43578e-06
12 *13:24 *152:A0 3.18676e-05
*RES
1 reg_wdata[4] *152:A0 36.7549 
*END

*D_NET *29 0.00294887
*CONN
*P reg_wdata[5] I
*I *153:A0 I *D sky130_fd_sc_hd__mux2_1
*CAP
1 reg_wdata[5] 0.000859488
2 *153:A0 0.000859488
3 *153:A0 *153:A1 5.65955e-05
4 *153:A0 *168:A 0
5 *153:A0 *169:A 0
6 *153:A0 *32:21 0.000431161
7 *153:A0 *47:53 2.70242e-05
8 *153:A0 *47:60 9.83388e-05
9 pad_schmitt_en *153:A0 0
10 pad_slew[0] *153:A0 0.000162047
11 reg_rdata[4] *153:A0 0
12 reg_rdata[5] *153:A0 9.28756e-05
13 *150:A0 *153:A0 4.38243e-05
14 *151:A0 *153:A0 0.000198911
15 *13:24 *153:A0 0.000119115
*RES
1 reg_wdata[5] *153:A0 28.1331 
*END

*D_NET *30 0.00173137
*CONN
*P reg_wdata[6] I
*I *154:A0 I *D sky130_fd_sc_hd__mux2_1
*CAP
1 reg_wdata[6] 0.000536005
2 *154:A0 0.000536005
3 *154:A0 *32:21 0
4 reg_rdata[6] *154:A0 8.32614e-05
5 *152:A0 *154:A0 0.000576094
*RES
1 reg_wdata[6] *154:A0 23.5412 
*END

*D_NET *31 0.0026779
*CONN
*P reg_wdata[7] I
*I *155:A0 I *D sky130_fd_sc_hd__mux2_1
*CAP
1 reg_wdata[7] 0.000989635
2 *155:A0 0.000989635
3 *155:A0 *33:9 0.000163445
4 reg_rdata[1] *155:A0 0.000316572
5 *150:A0 *155:A0 0.000218612
*RES
1 reg_wdata[7] *155:A0 24.5763 
*END

*D_NET *32 0.00605162
*CONN
*P reg_we I
*I *147:C_N I *D sky130_fd_sc_hd__or3b_2
*CAP
1 reg_we 0.00199409
2 *147:C_N 0
3 *32:21 0.00199409
4 *32:21 *144:A 5.20751e-05
5 *32:21 *158:D 6.04336e-05
6 *32:21 *160:D 0.000128154
7 *32:21 *161:CLK 1.59373e-05
8 *32:21 *161:D 5.52238e-05
9 *32:21 *162:D 0.00020993
10 *32:21 *168:A 0
11 *32:21 *169:A 0
12 *32:21 *33:29 0
13 *32:21 *33:43 0
14 *32:21 *47:10 0.000140933
15 *32:21 *47:17 0.000175892
16 *32:21 *47:39 0.000225616
17 *32:21 *50:16 0
18 *32:21 *51:8 3.03375e-05
19 pad_slew[1] *32:21 3.78126e-05
20 reg_rdata[6] *32:21 9.28756e-05
21 *148:A0 *32:21 0.000213282
22 *149:A1 *32:21 7.32173e-05
23 *150:A0 *32:21 9.61255e-05
24 *150:A1 *32:21 2.44318e-05
25 *152:A0 *32:21 0
26 *153:A0 *32:21 0.000431161
27 *154:A0 *32:21 0
*RES
1 reg_we *32:21 47.1896 
2 *32:21 *147:C_N 9.3 
*END

*D_NET *33 0.0110153
*CONN
*P rst_n I
*I *162:RESET_B I *D sky130_fd_sc_hd__dfrtp_2
*I *164:RESET_B I *D sky130_fd_sc_hd__dfrtp_2
*I *165:RESET_B I *D sky130_fd_sc_hd__dfrtp_2
*I *157:RESET_B I *D sky130_fd_sc_hd__dfrtp_2
*I *158:RESET_B I *D sky130_fd_sc_hd__dfrtp_2
*I *156:RESET_B I *D sky130_fd_sc_hd__dfrtp_2
*I *160:RESET_B I *D sky130_fd_sc_hd__dfrtp_2
*I *161:RESET_B I *D sky130_fd_sc_hd__dfrtp_2
*I *159:RESET_B I *D sky130_fd_sc_hd__dfrtp_2
*I *163:RESET_B I *D sky130_fd_sc_hd__dfrtp_2
*CAP
1 rst_n 0.000909178
2 *162:RESET_B 0.000141965
3 *164:RESET_B 0.00026599
4 *165:RESET_B 3.46943e-05
5 *157:RESET_B 0.000255542
6 *158:RESET_B 0.000114893
7 *156:RESET_B 0.00100136
8 *160:RESET_B 2.18047e-05
9 *161:RESET_B 3.04304e-05
10 *159:RESET_B 7.25332e-05
11 *163:RESET_B 3.59957e-05
12 *33:71 0.000750287
13 *33:69 0.000462285
14 *33:67 0.000446999
15 *33:47 0.000925676
16 *33:43 0.000512309
17 *33:29 0.000437222
18 *33:19 0.000301871
19 *33:9 0.00110228
20 *156:RESET_B *156:D 0.000313045
21 *156:RESET_B *160:D 0.000117926
22 *156:RESET_B *50:34 3.91714e-05
23 *158:RESET_B *158:D 0
24 *158:RESET_B *47:23 2.79092e-05
25 *161:RESET_B *51:8 1.20135e-05
26 *162:RESET_B *47:64 0.000100288
27 *165:RESET_B *165:CLK 0.00013324
28 *165:RESET_B *44:46 6.95093e-05
29 *33:9 *143:A 1.01075e-05
30 *33:9 *52:14 0.000153854
31 *33:19 *143:A 9.84008e-05
32 *33:43 *47:64 0.000226021
33 *33:67 *164:D 1.31516e-05
34 *33:67 *50:34 0.000144512
35 *33:67 *50:36 5.83304e-05
36 *33:69 *161:CLK 3.17148e-05
37 *33:69 *164:D 4.33438e-05
38 *33:69 *50:36 6.73939e-05
39 *33:71 *157:D 6.74815e-05
40 *33:71 *158:D 0
41 *33:71 *161:CLK 0.000217413
42 *33:71 *164:D 8.60675e-05
43 *33:71 *47:23 3.20447e-05
44 *33:71 *47:53 9.69486e-05
45 core_din *33:67 0
46 pad_pd_en *33:67 0
47 pad_pd_en *33:71 0
48 pad_schmitt_en *33:43 0
49 pad_slew[1] *33:71 0
50 reg_rdata[1] *33:71 0
51 *139:A *159:RESET_B 3.69047e-06
52 *139:A *33:19 7.86602e-05
53 *139:A *33:29 0.000125375
54 *139:A *33:43 0.000325368
55 *150:A0 *33:9 0
56 *150:A0 *33:29 0
57 *151:A1 *33:9 0
58 *151:A1 *33:19 0
59 *152:A0 *33:43 1.08359e-05
60 *154:A1 *162:RESET_B 7.79781e-06
61 *155:A0 *33:9 0.000163445
62 *167:A *33:67 5.41054e-05
63 *11:10 *162:RESET_B 8.50795e-06
64 *11:10 *33:43 0
65 *12:8 *159:RESET_B 5.14962e-05
66 *13:12 *33:43 0.000202842
67 *32:21 *33:29 0
68 *32:21 *33:43 0
*RES
1 rst_n *33:9 16.7387 
2 *33:9 *163:RESET_B 4.97321 
3 *33:9 *33:19 3.46429 
4 *33:19 *159:RESET_B 5.79464 
5 *33:19 *33:29 1.64286 
6 *33:29 *161:RESET_B 4.97321 
7 *33:29 *33:43 8.98214 
8 *33:43 *33:47 5.03571 
9 *33:47 *160:RESET_B 0.473214 
10 *33:47 *156:RESET_B 11.7232 
11 *156:RESET_B *33:67 8.26786 
12 *33:67 *33:69 1.33929 
13 *33:69 *33:71 8.625 
14 *33:71 *158:RESET_B 6.4375 
15 *33:71 *157:RESET_B 7.86607 
16 *33:69 *165:RESET_B 5.79464 
17 *33:67 *164:RESET_B 7.99107 
18 *33:43 *162:RESET_B 7.27679 
*END

*D_NET *34 0.0010372
*CONN
*I *164:D I *D sky130_fd_sc_hd__dfrtp_2
*I *144:X O *D sky130_fd_sc_hd__and2_2
*CAP
1 *164:D 0.000410698
2 *144:X 0.000410698
3 *164:D *161:CLK 7.3237e-05
4 pad_pd_en *164:D 0
5 *33:67 *164:D 1.31516e-05
6 *33:69 *164:D 4.33438e-05
7 *33:71 *164:D 8.60675e-05
*RES
1 *144:X *164:D 33.9571 
*END

*D_NET *35 0.000820961
*CONN
*I *165:D I *D sky130_fd_sc_hd__dfrtp_2
*I *146:X O *D sky130_fd_sc_hd__and2_2
*CAP
1 *165:D 0.000323691
2 *146:X 0.000323691
3 *165:D *146:B 2.79092e-05
4 pad_pu_en *165:D 4.23556e-05
5 *136:A1 *165:D 0
6 *145:A1 *165:D 7.83659e-05
7 *6:13 *165:D 2.49484e-05
*RES
1 *146:X *165:D 33.7964 
*END

*D_NET *36 0.00151944
*CONN
*I *156:D I *D sky130_fd_sc_hd__dfrtp_2
*I *148:X O *D sky130_fd_sc_hd__mux2_1
*CAP
1 *156:D 0.000367722
2 *148:X 0.000367722
3 *156:D *146:A 0.00012401
4 *156:D *148:S 9.62992e-05
5 *156:D *160:D 7.43578e-06
6 *156:D *169:A 2.59045e-05
7 *156:D *50:24 3.97863e-05
8 *156:D *50:26 2.84026e-05
9 *156:D *50:34 3.39077e-05
10 *148:A0 *156:D 0.000115206
11 *156:RESET_B *156:D 0.000313045
12 *167:A *156:D 0
*RES
1 *148:X *156:D 36.1357 
*END

*D_NET *37 0.000411948
*CONN
*I *157:D I *D sky130_fd_sc_hd__dfrtp_2
*I *149:X O *D sky130_fd_sc_hd__mux2_1
*CAP
1 *157:D 7.96841e-05
2 *149:X 7.96841e-05
3 *157:D *47:23 0.000129868
4 *150:A1 *157:D 5.52302e-05
5 *33:71 *157:D 6.74815e-05
*RES
1 *149:X *157:D 29.7786 
*END

*D_NET *38 0.000887393
*CONN
*I *158:D I *D sky130_fd_sc_hd__dfrtp_2
*I *150:X O *D sky130_fd_sc_hd__mux2_1
*CAP
1 *158:D 0.000332916
2 *150:X 0.000332916
3 *158:D *47:23 0
4 *158:D *49:23 0
5 pad_slew[1] *158:D 0.000161127
6 *158:RESET_B *158:D 0
7 *32:21 *158:D 6.04336e-05
8 *33:71 *158:D 0
*RES
1 *150:X *158:D 33.1357 
*END

*D_NET *39 0.00167189
*CONN
*I *159:D I *D sky130_fd_sc_hd__dfrtp_2
*I *151:X O *D sky130_fd_sc_hd__mux2_1
*CAP
1 *159:D 0.000458672
2 *151:X 0.000458672
3 *159:D *159:CLK 6.05161e-06
4 *159:D *163:D 0
5 *159:D *170:A 7.6997e-05
6 *159:D *52:14 5.52238e-05
7 *150:A0 *159:D 0.000312107
8 *151:A0 *159:D 0.00030417
*RES
1 *151:X *159:D 38.0464 
*END

*D_NET *40 0.00074289
*CONN
*I *160:D I *D sky130_fd_sc_hd__dfrtp_2
*I *152:X O *D sky130_fd_sc_hd__mux2_1
*CAP
1 *160:D 0.000244688
2 *152:X 0.000244688
3 *156:D *160:D 7.43578e-06
4 *156:RESET_B *160:D 0.000117926
5 *32:21 *160:D 0.000128154
*RES
1 *152:X *160:D 32.6536 
*END

*D_NET *41 0.00126249
*CONN
*I *161:D I *D sky130_fd_sc_hd__dfrtp_2
*I *153:X O *D sky130_fd_sc_hd__mux2_1
*CAP
1 *161:D 0.000236493
2 *153:X 0.000236493
3 *161:D *144:A 5.45701e-05
4 *161:D *168:A 0.000175519
5 *161:D *169:A 0.000183383
6 *161:D *51:8 1.07719e-05
7 *161:D *51:29 0.000261748
8 pad_slew[1] *161:D 0
9 *13:24 *161:D 4.82865e-05
10 *32:21 *161:D 5.52238e-05
*RES
1 *153:X *161:D 33.7607 
*END

*D_NET *42 0.00104238
*CONN
*I *162:D I *D sky130_fd_sc_hd__dfrtp_2
*I *154:X O *D sky130_fd_sc_hd__mux2_1
*CAP
1 *162:D 0.000401853
2 *154:X 0.000401853
3 *162:D *50:16 2.87452e-05
4 *152:A0 *162:D 0
5 *32:21 *162:D 0.00020993
*RES
1 *154:X *162:D 33.7116 
*END

*D_NET *43 0.00189185
*CONN
*I *163:D I *D sky130_fd_sc_hd__dfrtp_2
*I *155:X O *D sky130_fd_sc_hd__mux2_1
*CAP
1 *163:D 0.000560741
2 *155:X 0.000560741
3 *163:D *168:A 0.000126446
4 *163:D *49:12 2.30389e-05
5 *163:D *49:23 8.4336e-05
6 *163:D *52:14 0.000536551
7 *159:D *163:D 0
*RES
1 *155:X *163:D 36.9571 
*END

*D_NET *44 0.0081818
*CONN
*I *137:A2 I *D sky130_fd_sc_hd__a22o_2
*I *143:B I *D sky130_fd_sc_hd__and2_2
*I *142:B I *D sky130_fd_sc_hd__and2_2
*I *139:B I *D sky130_fd_sc_hd__and2_2
*I *141:B I *D sky130_fd_sc_hd__and2_2
*I *140:B I *D sky130_fd_sc_hd__and2_2
*I *136:A2 I *D sky130_fd_sc_hd__a22o_2
*I *138:B I *D sky130_fd_sc_hd__and2_2
*I *134:Y O *D sky130_fd_sc_hd__nor2_2
*CAP
1 *137:A2 0.000166773
2 *143:B 3.2426e-05
3 *142:B 9.89996e-05
4 *139:B 4.26984e-05
5 *141:B 0.000204518
6 *140:B 0.000118427
7 *136:A2 1.94806e-05
8 *138:B 0.000414999
9 *134:Y 0
10 *44:76 0.000214982
11 *44:63 0.000277802
12 *44:61 0.000725021
13 *44:46 0.00120883
14 *44:38 0.000863083
15 *44:19 0.000402534
16 *44:6 0.000499548
17 *138:B *145:S 0
18 *138:B *45:12 0
19 *140:B *51:29 0
20 *141:B *141:A 0.000249718
21 *141:B *143:A 4.78476e-05
22 *44:19 *145:S 0
23 *44:19 *45:12 0
24 *44:46 *144:B 0.000133491
25 *44:46 *145:S 0.000125567
26 *44:46 *165:CLK 0.000105332
27 *44:61 *143:A 5.33005e-05
28 *44:61 *48:8 3.42509e-05
29 pad_pu_en *44:19 5.83304e-05
30 pad_pu_en *44:38 5.643e-05
31 pad_schmitt_en *141:B 4.04292e-05
32 pad_schmitt_en *142:B 0.000193592
33 pad_schmitt_en *44:76 0.000164766
34 pad_slew[1] *140:B 0.00010487
35 reg_rdata[0] *136:A2 3.9534e-05
36 reg_rdata[0] *137:A2 8.27532e-05
37 reg_rdata[0] *44:38 0.000309266
38 reg_rdata[2] *138:B 5.62995e-05
39 reg_rdata[3] *142:B 0.000153047
40 reg_rdata[4] *140:B 4.218e-05
41 reg_rdata[5] *141:B 9.55387e-05
42 reg_rdata[7] *142:B 2.78822e-05
43 reg_rdata[7] *44:76 4.57445e-05
44 *136:A1 *44:38 0
45 *137:B2 *137:A2 1.97695e-05
46 *137:B2 *44:46 7.25149e-05
47 *138:A *138:B 0
48 *165:RESET_B *44:46 6.95093e-05
49 *10:8 *138:B 0.000170484
50 *10:8 *44:19 9.18513e-05
51 *10:12 *136:A2 3.9534e-05
52 *11:10 *142:B 3.51442e-05
53 *15:9 *138:B 7.49332e-05
54 *15:20 *138:B 9.777e-05
*RES
1 *134:Y *44:6 13.8 
2 *44:6 *138:B 23.175 
3 *44:6 *44:19 1.94643 
4 *44:19 *136:A2 14.5143 
5 *44:19 *44:38 9.19643 
6 *44:38 *44:46 17.3393 
7 *44:46 *140:B 20.8536 
8 *44:46 *44:61 10.8214 
9 *44:61 *44:63 4.5 
10 *44:63 *141:B 19.3179 
11 *44:63 *44:76 2.25 
12 *44:76 *139:B 14.3357 
13 *44:76 *142:B 17.1929 
14 *44:61 *143:B 9.83571 
15 *44:38 *137:A2 11.8402 
*END

*D_NET *45 0.0014614
*CONN
*I *137:B1 I *D sky130_fd_sc_hd__a22o_2
*I *136:B1 I *D sky130_fd_sc_hd__a22o_2
*I *135:X O *D sky130_fd_sc_hd__and2b_2
*CAP
1 *137:B1 4.90536e-05
2 *136:B1 0
3 *135:X 0.000386125
4 *45:12 0.000435178
5 *45:12 *145:S 0.000162773
6 reg_rdata[0] *137:B1 2.77173e-05
7 *136:A1 *137:B1 5.52302e-05
8 *137:A1 *137:B1 5.52302e-05
9 *137:B2 *137:B1 9.90431e-05
10 *138:A *45:12 9.25014e-06
11 *138:B *45:12 0
12 *10:12 *137:B1 0.000181796
13 *44:19 *45:12 0
*RES
1 *135:X *45:12 25.4429 
2 *45:12 *136:B1 9.3 
3 *45:12 *137:B1 11.4786 
*END

*D_NET *46 0.000295427
*CONN
*I *146:B I *D sky130_fd_sc_hd__and2_2
*I *145:X O *D sky130_fd_sc_hd__mux2_1
*CAP
1 *146:B 9.5008e-05
2 *145:X 9.5008e-05
3 *136:A1 *146:B 2.21972e-05
4 *145:A1 *146:B 0
5 *165:D *146:B 2.79092e-05
6 *8:23 *146:B 5.53052e-05
*RES
1 *145:X *146:B 29.7786 
*END

*D_NET *47 0.0117454
*CONN
*I *150:S I *D sky130_fd_sc_hd__mux2_1
*I *152:S I *D sky130_fd_sc_hd__mux2_1
*I *154:S I *D sky130_fd_sc_hd__mux2_1
*I *148:S I *D sky130_fd_sc_hd__mux2_1
*I *153:S I *D sky130_fd_sc_hd__mux2_1
*I *151:S I *D sky130_fd_sc_hd__mux2_1
*I *155:S I *D sky130_fd_sc_hd__mux2_1
*I *149:S I *D sky130_fd_sc_hd__mux2_1
*I *147:X O *D sky130_fd_sc_hd__or3b_2
*CAP
1 *150:S 0
2 *152:S 0
3 *154:S 0.000115998
4 *148:S 0.000450952
5 *153:S 0
6 *151:S 0.000409812
7 *155:S 3.40398e-05
8 *149:S 0
9 *147:X 0.000184752
10 *47:64 0.000788425
11 *47:60 0.000379366
12 *47:53 0.00100194
13 *47:39 0.000883798
14 *47:23 0.000689309
15 *47:17 0.000346354
16 *47:10 0.000245898
17 *148:S *169:A 0.000226405
18 *148:S *50:16 0.00018778
19 *151:S *52:14 0.00130937
20 *155:S *155:A1 5.52238e-05
21 *155:S *52:14 9.60875e-05
22 *47:53 *146:A 0
23 *47:53 *153:A1 7.1959e-05
24 *47:53 *161:CLK 0.000103544
25 *47:53 *51:29 0
26 pad_slew[1] *47:53 0.000273866
27 reg_rdata[1] *47:23 0.000550852
28 reg_rdata[3] *154:S 0
29 *148:A0 *148:S 0.00011959
30 *148:A1 *148:S 5.52302e-05
31 *150:A1 *47:17 0.000135028
32 *150:A1 *47:39 0.000215102
33 *151:A0 *151:S 0.00018077
34 *151:A1 *151:S 2.44318e-05
35 *152:A0 *154:S 0.000212771
36 *152:A0 *47:60 5.52238e-05
37 *152:A0 *47:64 0.000556567
38 *153:A0 *47:53 2.70242e-05
39 *153:A0 *47:60 9.83388e-05
40 *154:A1 *154:S 0
41 *154:A1 *47:64 0
42 *156:D *148:S 9.62992e-05
43 *157:D *47:23 0.000129868
44 *158:D *47:23 0
45 *158:RESET_B *47:23 2.79092e-05
46 *162:RESET_B *47:64 0.000100288
47 *167:A *47:53 0.000229443
48 *13:12 *47:60 1.74352e-05
49 *13:24 *47:53 0.000103572
50 *13:24 *47:60 5.72899e-05
51 *32:21 *47:10 0.000140933
52 *32:21 *47:17 0.000175892
53 *32:21 *47:39 0.000225616
54 *33:43 *47:64 0.000226021
55 *33:71 *47:23 3.20447e-05
56 *33:71 *47:53 9.69486e-05
*RES
1 *147:X *47:10 12.6393 
2 *47:10 *149:S 9.3 
3 *47:10 *47:17 1.76786 
4 *47:17 *47:23 16.1071 
5 *47:23 *155:S 10.2464 
6 *47:23 *151:S 21.7464 
7 *47:17 *47:39 2.17857 
8 *47:39 *47:53 25 
9 *47:53 *153:S 9.3 
10 *47:53 *47:60 3.41071 
11 *47:60 *47:64 11.6071 
12 *47:64 *148:S 23.7821 
13 *47:64 *154:S 16.6571 
14 *47:60 *152:S 9.3 
15 *47:39 *150:S 9.3 
*END

*D_NET *48 0.00413341
*CONN
*I *169:A I *D sky130_fd_sc_hd__clkbuf_16
*I *168:A I *D sky130_fd_sc_hd__clkbuf_16
*I *167:X O *D sky130_fd_sc_hd__clkbuf_16
*CAP
1 *169:A 0.000512826
2 *168:A 0.00056973
3 *167:X 7.33999e-05
4 *48:8 0.00115596
5 *168:A *158:CLK 5.20669e-05
6 *168:A *159:CLK 7.12245e-05
7 *168:A *49:12 3.11971e-05
8 *168:A *49:23 6.55528e-06
9 *169:A *146:A 0.000338359
10 *169:A *50:16 0.000121425
11 *169:A *51:29 5.78432e-05
12 pad_slew[1] *168:A 0
13 *148:A0 *169:A 0.000370924
14 *148:S *169:A 0.000226405
15 *150:A0 *168:A 0
16 *153:A0 *168:A 0
17 *153:A0 *169:A 0
18 *156:D *169:A 2.59045e-05
19 *161:D *168:A 0.000175519
20 *161:D *169:A 0.000183383
21 *163:D *168:A 0.000126446
22 *32:21 *168:A 0
23 *32:21 *169:A 0
24 *44:61 *48:8 3.42509e-05
*RES
1 *167:X *48:8 14.7464 
2 *48:8 *168:A 24.6036 
3 *48:8 *169:A 26.7286 
*END

*D_NET *49 0.00313748
*CONN
*I *170:A I *D sky130_fd_sc_hd__clkbuf_8
*I *159:CLK I *D sky130_fd_sc_hd__dfrtp_2
*I *163:CLK I *D sky130_fd_sc_hd__dfrtp_2
*I *157:CLK I *D sky130_fd_sc_hd__dfrtp_2
*I *158:CLK I *D sky130_fd_sc_hd__dfrtp_2
*I *168:X O *D sky130_fd_sc_hd__clkbuf_16
*CAP
1 *170:A 9.92838e-05
2 *159:CLK 0.00027343
3 *163:CLK 0
4 *157:CLK 0.00027026
5 *158:CLK 9.0671e-05
6 *168:X 0.000174889
7 *49:25 0.00027026
8 *49:23 0.000399799
9 *49:12 0.000553039
10 *49:6 0.000610172
11 pad_slew[1] *159:CLK 0
12 *150:A0 *159:CLK 1.11454e-05
13 *150:A1 *159:CLK 0
14 *151:A0 *170:A 3.30575e-05
15 *158:D *49:23 0
16 *159:D *159:CLK 6.05161e-06
17 *159:D *170:A 7.6997e-05
18 *163:D *49:12 2.30389e-05
19 *163:D *49:23 8.4336e-05
20 *168:A *158:CLK 5.20669e-05
21 *168:A *159:CLK 7.12245e-05
22 *168:A *49:12 3.11971e-05
23 *168:A *49:23 6.55528e-06
*RES
1 *168:X *49:6 11.0679 
2 *49:6 *49:12 8.64286 
3 *49:12 *158:CLK 15.5679 
4 *49:12 *49:23 2.55357 
5 *49:23 *49:25 4.5 
6 *49:25 *157:CLK 13.5321 
7 *49:25 *163:CLK 9.3 
8 *49:23 *159:CLK 18.4964 
9 *49:6 *170:A 20.2464 
*END

*D_NET *50 0.006183
*CONN
*I *162:CLK I *D sky130_fd_sc_hd__dfrtp_2
*I *160:CLK I *D sky130_fd_sc_hd__dfrtp_2
*I *156:CLK I *D sky130_fd_sc_hd__dfrtp_2
*I *164:CLK I *D sky130_fd_sc_hd__dfrtp_2
*I *165:CLK I *D sky130_fd_sc_hd__dfrtp_2
*I *161:CLK I *D sky130_fd_sc_hd__dfrtp_2
*I *169:X O *D sky130_fd_sc_hd__clkbuf_16
*CAP
1 *162:CLK 0
2 *160:CLK 0
3 *156:CLK 0
4 *164:CLK 0
5 *165:CLK 0.000754064
6 *161:CLK 0.000328848
7 *169:X 0.000464345
8 *50:36 0.00112226
9 *50:34 0.000350416
10 *50:26 0.000333833
11 *50:24 0.000202694
12 *50:16 0.000644275
13 *161:CLK *144:A 9.83388e-05
14 *50:16 *146:A 4.10843e-05
15 *50:24 *146:A 9.83442e-05
16 *148:S *50:16 0.00018778
17 *156:D *50:24 3.97863e-05
18 *156:D *50:26 2.84026e-05
19 *156:D *50:34 3.39077e-05
20 *156:RESET_B *50:34 3.91714e-05
21 *162:D *50:16 2.87452e-05
22 *164:D *161:CLK 7.3237e-05
23 *165:RESET_B *165:CLK 0.00013324
24 *167:A *161:CLK 3.34295e-05
25 *167:A *50:24 0
26 *167:A *50:34 0.00015304
27 *167:A *50:36 0.000128154
28 *169:A *50:16 0.000121425
29 *32:21 *161:CLK 1.59373e-05
30 *32:21 *50:16 0
31 *33:67 *50:34 0.000144512
32 *33:67 *50:36 5.83304e-05
33 *33:69 *161:CLK 3.17148e-05
34 *33:69 *50:36 6.73939e-05
35 *33:71 *161:CLK 0.000217413
36 *44:46 *165:CLK 0.000105332
37 *47:53 *161:CLK 0.000103544
*RES
1 *169:X *50:16 25.55 
2 *50:16 *50:24 12.5 
3 *50:24 *50:26 0.535714 
4 *50:26 *50:34 10.1786 
5 *50:34 *50:36 1.64286 
6 *50:36 *161:CLK 21.1929 
7 *50:36 *165:CLK 22.8714 
8 *50:34 *164:CLK 13.8 
9 *50:26 *156:CLK 9.3 
10 *50:24 *160:CLK 9.3 
11 *50:16 *162:CLK 9.3 
*END

*D_NET *51 0.00598682
*CONN
*I *141:A I *D sky130_fd_sc_hd__and2_2
*I *146:A I *D sky130_fd_sc_hd__and2_2
*I *153:A1 I *D sky130_fd_sc_hd__mux2_1
*I *144:A I *D sky130_fd_sc_hd__and2_2
*I *161:Q O *D sky130_fd_sc_hd__dfrtp_2
*CAP
1 *141:A 0.000112052
2 *146:A 0.000865994
3 *153:A1 4.0477e-05
4 *144:A 0.000131112
5 *161:Q 0
6 *51:29 0.00111467
7 *51:8 0.00100881
8 *51:4 0.000781547
9 *141:A *143:A 0.000249718
10 pad_slew[1] *51:29 0
11 reg_rdata[4] *51:29 6.606e-05
12 *140:B *51:29 0
13 *141:B *141:A 0.000249718
14 *153:A0 *153:A1 5.65955e-05
15 *156:D *146:A 0.00012401
16 *161:CLK *144:A 9.83388e-05
17 *161:D *144:A 5.45701e-05
18 *161:D *51:8 1.07719e-05
19 *161:D *51:29 0.000261748
20 *161:RESET_B *51:8 1.20135e-05
21 *169:A *146:A 0.000338359
22 *169:A *51:29 5.78432e-05
23 *13:24 *153:A1 5.86157e-05
24 *32:21 *144:A 5.20751e-05
25 *32:21 *51:8 3.03375e-05
26 *47:53 *146:A 0
27 *47:53 *153:A1 7.1959e-05
28 *47:53 *51:29 0
29 *50:16 *146:A 4.10843e-05
30 *50:24 *146:A 9.83442e-05
*RES
1 *161:Q *51:4 9.3 
2 *51:4 *51:8 12.0179 
3 *51:8 *144:A 16.8536 
4 *51:8 *51:29 5.03571 
5 *51:29 *153:A1 15.1571 
6 *51:29 *146:A 28.9964 
7 *51:4 *141:A 21.9964 
*END

*D_NET *52 0.00883831
*CONN
*I *143:A I *D sky130_fd_sc_hd__and2_2
*I *155:A1 I *D sky130_fd_sc_hd__mux2_1
*I *145:S I *D sky130_fd_sc_hd__mux2_1
*I *163:Q O *D sky130_fd_sc_hd__dfrtp_2
*CAP
1 *143:A 0.000279268
2 *155:A1 3.76962e-05
3 *145:S 0.000842227
4 *163:Q 0
5 *52:14 0.00165113
6 *52:6 0.00105047
7 core_din *145:S 5.60756e-05
8 pad_schmitt_en *143:A 1.94879e-05
9 reg_rdata[0] *145:S 0.000247243
10 reg_rdata[2] *145:S 5.33334e-05
11 *136:B2 *145:S 0.000830901
12 *137:B2 *145:S 0.000129653
13 *138:A *145:S 0.000138005
14 *138:B *145:S 0
15 *139:A *143:A 0.000413289
16 *141:A *143:A 0.000249718
17 *141:B *143:A 4.78476e-05
18 *149:A1 *145:S 7.83587e-05
19 *151:S *52:14 0.00130937
20 *155:S *155:A1 5.52238e-05
21 *155:S *52:14 9.60875e-05
22 *159:D *52:14 5.52238e-05
23 *163:D *52:14 0.000536551
24 *6:13 *145:S 5.71472e-05
25 *33:9 *143:A 1.01075e-05
26 *33:9 *52:14 0.000153854
27 *33:19 *143:A 9.84008e-05
28 *44:19 *145:S 0
29 *44:46 *145:S 0.000125567
30 *44:61 *143:A 5.33005e-05
31 *45:12 *145:S 0.000162773
*RES
1 *163:Q *52:6 13.8 
2 *52:6 *52:14 23.9107 
3 *52:14 *145:S 41.0143 
4 *52:14 *155:A1 10.2464 
5 *52:6 *143:A 22.3536 
*END

*D_NET *53 0.000880555
*CONN
*I *144:B I *D sky130_fd_sc_hd__and2_2
*I *165:Q O *D sky130_fd_sc_hd__dfrtp_2
*CAP
1 *144:B 0.000299866
2 *165:Q 0.000299866
3 pad_slew[1] *144:B 0.000147332
4 *44:46 *144:B 0.000133491
*RES
1 *165:Q *144:B 32.1357 
*END
