*SPEF "ieee 1481-1999"
*DESIGN "io_pad_wrapper"
*DATE "06:13:09 Sunday July 26, 2026"
*VENDOR "The OpenROAD Project"
*PROGRAM "OpenROAD"
*VERSION "b16bda7e82721d10566ff7e2b68f1ff0be9f9e38"
*DESIGN_FLOW "NAME_SCOPE LOCAL" "PIN_CAP NONE"
*DIVIDER /
*DELIMITER :
*BUS_DELIMITER []
*T_UNIT 1 NS
*C_UNIT 1 PF
*R_UNIT 1 OHM
*L_UNIT 1 HENRY

*NAME_MAP
*3 clk
*4 core_din
*5 core_dout
*6 pad_din_raw
*7 pad_dout
*8 pad_oe
*9 pad_pd_en
*10 pad_pu_en
*11 pad_schmitt_en
*12 pad_slew[0]
*13 pad_slew[1]
*14 reg_addr[0]
*15 reg_addr[1]
*16 reg_rdata[0]
*17 reg_rdata[1]
*18 reg_rdata[2]
*19 reg_rdata[3]
*20 reg_rdata[4]
*21 reg_rdata[5]
*22 reg_rdata[6]
*23 reg_rdata[7]
*24 reg_wdata[0]
*25 reg_wdata[1]
*26 reg_wdata[2]
*27 reg_wdata[3]
*28 reg_wdata[4]
*29 reg_wdata[5]
*30 reg_wdata[6]
*31 reg_wdata[7]
*32 reg_we
*33 rst_n
*34 _00_
*35 _01_
*36 _02_
*37 _03_
*38 _04_
*39 _05_
*40 _06_
*41 _07_
*42 _08_
*43 _09_
*44 _10_
*45 _11_
*46 _12_
*47 _13_
*48 clknet_0_clk
*49 clknet_1_0__leaf_clk
*50 clknet_1_1__leaf_clk
*51 ie
*52 loopback_en
*53 sync_ff1
*54 FILLER_0_0_15
*55 FILLER_0_0_29
*56 FILLER_0_0_3
*57 FILLER_0_0_46
*58 FILLER_0_0_57
*59 FILLER_0_10_15
*60 FILLER_0_10_27
*61 FILLER_0_10_29
*62 FILLER_0_10_3
*63 FILLER_0_10_41
*64 FILLER_0_10_45
*65 FILLER_0_10_55
*66 FILLER_0_10_57
*67 FILLER_0_1_3
*68 FILLER_0_1_34
*69 FILLER_0_1_55
*70 FILLER_0_1_57
*71 FILLER_0_2_29
*72 FILLER_0_2_3
*73 FILLER_0_2_58
*74 FILLER_0_2_62
*75 FILLER_0_3_3
*76 FILLER_0_4_24
*77 FILLER_0_4_3
*78 FILLER_0_4_35
*79 FILLER_0_4_58
*80 FILLER_0_4_62
*81 FILLER_0_4_7
*82 FILLER_0_5_3
*83 FILLER_0_5_48
*84 FILLER_0_6_29
*85 FILLER_0_6_3
*86 FILLER_0_6_61
*87 FILLER_0_7_3
*88 FILLER_0_8_15
*89 FILLER_0_8_27
*90 FILLER_0_8_29
*91 FILLER_0_8_3
*92 FILLER_0_8_58
*93 FILLER_0_8_62
*94 FILLER_0_9_14
*95 FILLER_0_9_3
*96 FILLER_0_9_55
*97 FILLER_0_9_57
*98 FILLER_0_9_9
*99 PHY_EDGE_ROW_0_Left_11
*100 PHY_EDGE_ROW_0_Right_0
*101 PHY_EDGE_ROW_10_Left_21
*102 PHY_EDGE_ROW_10_Right_10
*103 PHY_EDGE_ROW_1_Left_12
*104 PHY_EDGE_ROW_1_Right_1
*105 PHY_EDGE_ROW_2_Left_13
*106 PHY_EDGE_ROW_2_Right_2
*107 PHY_EDGE_ROW_3_Left_14
*108 PHY_EDGE_ROW_3_Right_3
*109 PHY_EDGE_ROW_4_Left_15
*110 PHY_EDGE_ROW_4_Right_4
*111 PHY_EDGE_ROW_5_Left_16
*112 PHY_EDGE_ROW_5_Right_5
*113 PHY_EDGE_ROW_6_Left_17
*114 PHY_EDGE_ROW_6_Right_6
*115 PHY_EDGE_ROW_7_Left_18
*116 PHY_EDGE_ROW_7_Right_7
*117 PHY_EDGE_ROW_8_Left_19
*118 PHY_EDGE_ROW_8_Right_8
*119 PHY_EDGE_ROW_9_Left_20
*120 PHY_EDGE_ROW_9_Right_9
*121 TAP_TAPCELL_ROW_0_22
*122 TAP_TAPCELL_ROW_0_23
*123 TAP_TAPCELL_ROW_10_33
*124 TAP_TAPCELL_ROW_10_34
*125 TAP_TAPCELL_ROW_1_24
*126 TAP_TAPCELL_ROW_2_25
*127 TAP_TAPCELL_ROW_3_26
*128 TAP_TAPCELL_ROW_4_27
*129 TAP_TAPCELL_ROW_5_28
*130 TAP_TAPCELL_ROW_6_29
*131 TAP_TAPCELL_ROW_7_30
*132 TAP_TAPCELL_ROW_8_31
*133 TAP_TAPCELL_ROW_9_32
*134 _14_
*135 _15_
*136 _16_
*137 _17_
*138 _18_
*139 _19_
*140 _20_
*141 _21_
*142 _22_
*143 _23_
*144 _24_
*145 _25_
*146 _26_
*147 _27_
*148 _28_
*149 _29_
*150 _30_
*151 _31_
*152 _32_
*153 _33_
*154 _34_
*155 _35_
*156 _36_
*157 _37_
*158 _38_
*159 _39_
*160 _40_
*161 _41_
*162 _42_
*163 _43_
*164 _44_
*165 _45_
*166 _46_
*167 clkbuf_0_clk
*168 clkbuf_1_0__f_clk
*169 clkbuf_1_1__f_clk
*170 clkload0

*PORTS
clk I
core_din O
core_dout I
pad_din_raw I
pad_dout O
pad_oe O
pad_pd_en O
pad_pu_en O
pad_schmitt_en O
pad_slew[0] O
pad_slew[1] O
reg_addr[0] I
reg_addr[1] I
reg_rdata[0] O
reg_rdata[1] O
reg_rdata[2] O
reg_rdata[3] O
reg_rdata[4] O
reg_rdata[5] O
reg_rdata[6] O
reg_rdata[7] O
reg_wdata[0] I
reg_wdata[1] I
reg_wdata[2] I
reg_wdata[3] I
reg_wdata[4] I
reg_wdata[5] I
reg_wdata[6] I
reg_wdata[7] I
reg_we I
rst_n I

*D_NET *3 0.00457052
*CONN
*P clk I
*I *167:A I *D sky130_fd_sc_hd__clkbuf_16
*CAP
1 clk 0.00184744
2 *167:A 0
3 *3:9 0.00184744
4 *3:9 core_din 0.000215242
5 *3:9 *161:CLK 3.70094e-05
6 *3:9 *33:67 5.65491e-05
7 *3:9 *36:10 0
8 *3:9 *47:53 0.000255292
9 *3:9 *50:24 0
10 *3:9 *50:34 0.000169665
11 *3:9 *50:36 0.000141879
*RES
1 clk *3:9 36.932 
2 *3:9 *167:A 38 
*END

*D_NET *4 0.00553195
*CONN
*P core_din O
*I *137:B2 I *D sky130_fd_sc_hd__a22o_2
*I *164:Q O *D sky130_fd_sc_hd__dfrtp_2
*CAP
1 core_din 0.00130754
2 *137:B2 0.000323087
3 *164:Q 0.000424769
4 *4:8 0.0020554
5 core_din pad_pd_en 5.91782e-05
6 core_din *136:A1 0
7 core_din *148:A1 6.72279e-05
8 core_din *5:9 0.000133039
9 core_din *6:26 6.00862e-06
10 core_din *8:8 8.61037e-06
11 core_din *8:23 5.08342e-05
12 core_din *33:67 0
13 core_din *52:20 5.79893e-05
14 *137:B2 pad_pd_en 0.000404903
15 *137:B2 reg_rdata[0] 3.70094e-05
16 *137:B2 *137:A2 2.02517e-05
17 *137:B2 *137:B1 9.84851e-05
18 *137:B2 *16:8 5.41385e-05
19 *137:B2 *44:46 7.58767e-05
20 *137:B2 *52:20 0.000132352
21 *3:9 core_din 0.000215242
*RES
1 *164:Q *4:8 42.9093 
2 *4:8 *137:B2 47.6114 
3 *4:8 core_din 29.3827 
*END

*D_NET *5 0.00281266
*CONN
*P core_dout I
*I *166:A I *D sky130_fd_sc_hd__buf_2
*I *145:A1 I *D sky130_fd_sc_hd__mux2_1
*CAP
1 core_dout 0.000594833
2 *166:A 3.09382e-05
3 *145:A1 0.000229188
4 *5:9 0.000854959
5 *145:A1 *148:A1 0
6 *145:A1 *6:13 0.000410739
7 *145:A1 *6:26 7.53384e-06
8 *145:A1 *8:23 0
9 *145:A1 *35:8 8.62876e-05
10 *145:A1 *46:8 0
11 *166:A *7:10 2.93845e-05
12 *5:9 *6:13 0.000435759
13 core_din *5:9 0.000133039
*RES
1 core_dout *5:9 17.3413 
2 *5:9 *145:A1 43.6964 
3 *5:9 *166:A 38.6214 
*END

*D_NET *6 0.00466441
*CONN
*P pad_din_raw I
*I *136:B2 I *D sky130_fd_sc_hd__a22o_2
*I *145:A0 I *D sky130_fd_sc_hd__mux2_1
*CAP
1 pad_din_raw 0.00068658
2 *136:B2 0
3 *145:A0 0
4 *6:26 0.000369569
5 *6:13 0.00105615
6 *6:13 pad_dout 5.99691e-05
7 *6:13 pad_oe 0
8 *6:13 *145:S 5.67058e-05
9 *6:13 *35:8 2.60152e-05
10 *6:26 *136:A1 0.000658626
11 *6:26 *145:S 0.000253936
12 *6:26 *52:20 0.000636815
13 core_din *6:26 6.00862e-06
14 *145:A1 *6:13 0.000410739
15 *145:A1 *6:26 7.53384e-06
16 *5:9 *6:13 0.000435759
*RES
1 pad_din_raw *6:13 34.9897 
2 *6:13 *145:A0 23 
3 *6:13 *6:26 41.9521 
4 *6:26 *136:B2 23 
*END

*D_NET *7 0.00125201
*CONN
*P pad_dout O
*I *166:X O *D sky130_fd_sc_hd__buf_2
*CAP
1 pad_dout 0.000100766
2 *166:X 0.000449387
3 *7:10 0.000550153
4 pad_dout pad_oe 6.23473e-05
5 *166:A *7:10 2.93845e-05
6 *6:13 pad_dout 5.99691e-05
*RES
1 *166:X *7:10 43.7068 
2 *7:10 pad_dout 8.58613 
*END

*D_NET *8 0.00427191
*CONN
*P pad_oe O
*I *148:A1 I *D sky130_fd_sc_hd__mux2_1
*I *136:A1 I *D sky130_fd_sc_hd__a22o_2
*I *156:Q O *D sky130_fd_sc_hd__dfrtp_2
*CAP
1 pad_oe 0.000395398
2 *148:A1 0.000518233
3 *136:A1 0.000479607
4 *156:Q 5.02407e-06
5 *8:23 0.00100161
6 *8:8 0.000572612
7 pad_oe pad_pd_en 0.000182089
8 *136:A1 pad_pu_en 0
9 *136:A1 *137:B1 5.50106e-05
10 *136:A1 *10:12 2.32004e-05
11 *136:A1 *16:8 5.41288e-05
12 *136:A1 *35:8 0
13 *136:A1 *44:38 0
14 *136:A1 *46:8 2.46922e-05
15 *148:A1 *148:S 5.50106e-05
16 *8:23 *46:8 5.76445e-05
17 core_din *136:A1 0
18 core_din *148:A1 6.72279e-05
19 core_din *8:8 8.61037e-06
20 core_din *8:23 5.08342e-05
21 pad_dout pad_oe 6.23473e-05
22 *145:A1 *148:A1 0
23 *145:A1 *8:23 0
24 *6:13 pad_oe 0
25 *6:26 *136:A1 0.000658626
*RES
1 *156:Q *8:8 38.3211 
2 *8:8 *136:A1 49.5482 
3 *8:8 *8:23 2.25786 
4 *8:23 pad_oe 9.78827 
5 *8:23 *148:A1 47.6011 
*END

*D_NET *9 0.00635197
*CONN
*P pad_pd_en O
*I *150:A1 I *D sky130_fd_sc_hd__mux2_1
*I *138:A I *D sky130_fd_sc_hd__and2_2
*I *158:Q O *D sky130_fd_sc_hd__dfrtp_2
*CAP
1 pad_pd_en 0.00119054
2 *150:A1 0.000246741
3 *138:A 0
4 *158:Q 0
5 *9:21 0.00181414
6 *9:10 0.000139435
7 *9:4 0.000516293
8 pad_pd_en pad_pu_en 0.000106714
9 pad_pd_en pad_schmitt_en 0
10 pad_pd_en reg_rdata[0] 0.000280228
11 pad_pd_en reg_rdata[1] 0.000103118
12 pad_pd_en *25:15 8.25811e-05
13 pad_pd_en *33:67 0
14 pad_pd_en *33:71 0
15 pad_pd_en *34:10 0
16 *150:A1 *159:CLK 0
17 *150:A1 *32:21 2.4754e-05
18 *150:A1 *37:10 5.50106e-05
19 *150:A1 *47:17 0.000135037
20 *150:A1 *47:39 0.000213869
21 *9:10 *138:B 0
22 *9:10 *45:10 1.01436e-05
23 *9:10 *52:20 0.000144158
24 *9:21 reg_rdata[0] 0.00032263
25 *9:21 *25:15 0.000320398
26 core_din pad_pd_en 5.91782e-05
27 pad_oe pad_pd_en 0.000182089
28 *137:B2 pad_pd_en 0.000404903
*RES
1 *158:Q *9:4 23 
2 *9:4 *9:10 33.6664 
3 *9:10 *138:A 23 
4 *9:4 *9:21 22.3743 
5 *9:21 *150:A1 42.93 
6 *9:21 pad_pd_en 21.8072 
*END

*D_NET *10 0.00398747
*CONN
*P pad_pu_en O
*I *137:A1 I *D sky130_fd_sc_hd__a22o_2
*I *149:A1 I *D sky130_fd_sc_hd__mux2_1
*I *157:Q O *D sky130_fd_sc_hd__dfrtp_2
*CAP
1 pad_pu_en 0.00053936
2 *137:A1 9.64392e-05
3 *149:A1 0
4 *157:Q 0.000223503
5 *10:20 0.000167994
6 *10:12 0.000582694
7 *10:8 0.00108112
8 pad_pu_en pad_schmitt_en 0.000123905
9 pad_pu_en *35:8 4.35909e-05
10 pad_pu_en *44:19 6.48142e-05
11 pad_pu_en *44:38 6.15915e-05
12 *137:A1 *137:B1 5.50106e-05
13 *137:A1 *16:8 9.88574e-06
14 *10:8 *138:B 0.000187573
15 *10:8 *15:20 8.1865e-05
16 *10:8 *44:19 0.000101098
17 *10:12 *136:A2 4.01471e-05
18 *10:12 *137:B1 0.000181125
19 *10:12 *16:8 1.67619e-05
20 *10:20 reg_rdata[0] 3.83778e-05
21 *10:20 *32:21 7.4416e-05
22 *10:20 *52:20 8.62783e-05
23 pad_pd_en pad_pu_en 0.000106714
24 *136:A1 pad_pu_en 0
25 *136:A1 *10:12 2.32004e-05
*RES
1 *157:Q *10:8 42.0186 
2 *10:8 *10:12 19.4329 
3 *10:12 *10:20 32.7757 
4 *10:20 *149:A1 23 
5 *10:12 *137:A1 24.595 
6 *10:8 pad_pu_en 14.7904 
*END

*D_NET *11 0.0081178
*CONN
*P pad_schmitt_en O
*I *154:A1 I *D sky130_fd_sc_hd__mux2_1
*I *142:A I *D sky130_fd_sc_hd__and2_2
*I *162:Q O *D sky130_fd_sc_hd__dfrtp_2
*CAP
1 pad_schmitt_en 0.0022346
2 *154:A1 0.000513604
3 *142:A 0
4 *162:Q 5.45698e-05
5 *11:10 0.00233005
6 *11:8 0.000663629
7 pad_schmitt_en pad_slew[0] 0.000296663
8 pad_schmitt_en reg_rdata[4] 0.00095315
9 pad_schmitt_en *141:B 4.36457e-05
10 pad_schmitt_en *142:B 0.000215131
11 pad_schmitt_en *143:A 2.11066e-05
12 pad_schmitt_en *12:41 0.000100446
13 pad_schmitt_en *13:8 5.44006e-05
14 pad_schmitt_en *29:13 0
15 pad_schmitt_en *33:43 0
16 pad_schmitt_en *44:76 0.00018223
17 *154:A1 reg_rdata[3] 0.000210762
18 *154:A1 *154:S 0
19 *154:A1 *162:RESET_B 7.75329e-06
20 *154:A1 *47:64 0
21 *11:10 reg_rdata[3] 6.42902e-05
22 *11:10 *142:B 3.92407e-05
23 *11:10 *162:RESET_B 8.62073e-06
24 *11:10 *33:43 0
25 pad_pd_en pad_schmitt_en 0
26 pad_pu_en pad_schmitt_en 0.000123905
*RES
1 *162:Q *11:8 38.6214 
2 *11:8 *11:10 2.25786 
3 *11:10 pad_schmitt_en 19.7159 
4 *11:10 *142:A 38 
5 *11:8 *154:A1 46.7829 
*END

*D_NET *12 0.00821821
*CONN
*P pad_slew[0] O
*I *139:A I *D sky130_fd_sc_hd__and2_2
*I *151:A1 I *D sky130_fd_sc_hd__mux2_1
*I *159:Q O *D sky130_fd_sc_hd__dfrtp_2
*CAP
1 pad_slew[0] 0.00186058
2 *139:A 0
3 *151:A1 0.000441584
4 *159:Q 0
5 *12:41 0.000291927
6 *12:8 0.00244684
7 *12:4 0.000436599
8 pad_slew[0] pad_slew[1] 0.000301861
9 pad_slew[0] *25:15 0
10 pad_slew[0] *26:17 5.79413e-06
11 pad_slew[0] *27:13 2.60267e-05
12 pad_slew[0] *29:13 0.000161701
13 *151:A1 *151:S 2.4754e-05
14 *151:A1 *26:17 0.000563579
15 *151:A1 *27:13 9.84851e-05
16 *151:A1 *33:9 0
17 *151:A1 *33:19 0
18 *12:8 *159:RESET_B 5.2094e-05
19 *12:41 *143:A 0.000457857
20 *12:41 *159:RESET_B 3.7122e-06
21 *12:41 *13:8 6.48142e-05
22 *12:41 *33:19 8.66355e-05
23 *12:41 *33:29 0.000138184
24 *12:41 *33:43 0.000358075
25 pad_schmitt_en pad_slew[0] 0.000296663
26 pad_schmitt_en *12:41 0.000100446
*RES
1 *159:Q *12:4 23 
2 *12:4 *12:8 17.5271 
3 *12:8 *151:A1 48.1707 
4 *12:8 pad_slew[0] 13.2677 
5 *12:4 *12:41 39.57 
6 *12:41 *139:A 23 
*END

*D_NET *13 0.0064581
*CONN
*P pad_slew[1] O
*I *152:A1 I *D sky130_fd_sc_hd__mux2_1
*I *140:A I *D sky130_fd_sc_hd__and2_2
*I *160:Q O *D sky130_fd_sc_hd__dfrtp_2
*CAP
1 pad_slew[1] 0.00132583
2 *152:A1 0
3 *140:A 0
4 *160:Q 6.96829e-05
5 *13:24 0.00197674
6 *13:12 0.000772969
7 *13:8 0.000191738
8 pad_slew[1] *159:CLK 0
9 pad_slew[1] *14:9 6.52282e-05
10 pad_slew[1] *15:9 0
11 pad_slew[1] *25:15 0.000136139
12 pad_slew[1] *32:21 3.70829e-05
13 pad_slew[1] *33:71 0
14 pad_slew[1] *38:10 0.000177796
15 pad_slew[1] *41:10 0
16 pad_slew[1] *44:52 0.00010909
17 pad_slew[1] *47:53 0.000282453
18 pad_slew[1] *48:14 0
19 pad_slew[1] *51:29 0
20 pad_slew[1] *53:10 0.000162169
21 *13:8 *33:43 0.000225275
22 *13:12 *28:13 7.53384e-06
23 *13:12 *47:60 1.76557e-05
24 *13:24 *153:A1 5.86341e-05
25 *13:24 *20:12 5.56279e-05
26 *13:24 *28:13 3.22879e-05
27 *13:24 *29:13 0.000123082
28 *13:24 *41:10 4.96207e-05
29 *13:24 *47:53 0.000102492
30 *13:24 *47:60 5.79042e-05
31 pad_schmitt_en *13:8 5.44006e-05
32 pad_slew[0] pad_slew[1] 0.000301861
33 *12:41 *13:8 6.48142e-05
*RES
1 *160:Q *13:8 40.9621 
2 *13:8 *13:12 16.5743 
3 *13:12 *13:24 11.8071 
4 *13:24 pad_slew[1] 37.7518 
5 *13:24 *140:A 23 
6 *13:12 *152:A1 23 
*END

*D_NET *14 0.00235596
*CONN
*P reg_addr[0] I
*I *147:B I *D sky130_fd_sc_hd__or3b_2
*I *134:B I *D sky130_fd_sc_hd__nor2_2
*I *135:B I *D sky130_fd_sc_hd__and2b_2
*CAP
1 reg_addr[0] 0.000162369
2 *147:B 0.00011825
3 *134:B 5.29511e-05
4 *135:B 0.000229558
5 *14:24 0.000678157
6 *14:9 0.000898882
7 *134:B *147:A 2.19806e-05
8 *147:B *147:A 4.31546e-05
9 *14:9 *15:9 7.1481e-05
10 *14:24 *147:A 1.39431e-05
11 *14:24 *15:9 0
12 *14:24 *15:20 0
13 pad_slew[1] *14:9 6.52282e-05
*RES
1 reg_addr[0] *14:9 9.34521 
2 *14:9 *135:B 41.48 
3 *14:9 *14:24 22.9543 
4 *14:24 *134:B 24.2014 
5 *14:24 *147:B 24.5743 
*END

*D_NET *15 0.00231255
*CONN
*P reg_addr[1] I
*I *147:A I *D sky130_fd_sc_hd__or3b_2
*I *134:A I *D sky130_fd_sc_hd__nor2_2
*I *135:A_N I *D sky130_fd_sc_hd__and2b_2
*CAP
1 reg_addr[1] 0.000417119
2 *147:A 0.000213002
3 *134:A 0
4 *135:A_N 0
5 *15:20 0.000481883
6 *15:9 0.000686
7 *15:9 reg_rdata[0] 0.000108016
8 *15:9 *138:B 7.55832e-05
9 *15:20 *138:B 9.85198e-05
10 pad_slew[1] *15:9 0
11 *134:B *147:A 2.19806e-05
12 *147:B *147:A 4.31546e-05
13 *10:8 *15:20 8.1865e-05
14 *14:9 *15:9 7.1481e-05
15 *14:24 *147:A 1.39431e-05
16 *14:24 *15:9 0
17 *14:24 *15:20 0
*RES
1 reg_addr[1] *15:9 13.5623 
2 *15:9 *135:A_N 38 
3 *15:9 *15:20 21.1314 
4 *15:20 *134:A 23 
5 *15:20 *147:A 27.1429 
*END

*D_NET *16 0.00476564
*CONN
*P reg_rdata[0] O
*I *136:X O *D sky130_fd_sc_hd__a22o_2
*CAP
1 reg_rdata[0] 0.00100515
2 *136:X 0.000151006
3 *16:8 0.00115616
4 reg_rdata[0] reg_rdata[1] 0.000427297
5 reg_rdata[0] reg_rdata[2] 0.000347703
6 reg_rdata[0] *25:15 5.06153e-05
7 reg_rdata[0] *52:20 0.000247666
8 *16:8 *136:A2 4.01471e-05
9 *16:8 *137:A2 8.264e-05
10 *16:8 *137:B1 2.80394e-05
11 *16:8 *44:38 0.000308039
12 pad_pd_en reg_rdata[0] 0.000280228
13 *136:A1 *16:8 5.41288e-05
14 *137:A1 *16:8 9.88574e-06
15 *137:B2 reg_rdata[0] 3.70094e-05
16 *137:B2 *16:8 5.41385e-05
17 *9:21 reg_rdata[0] 0.00032263
18 *10:12 *16:8 1.67619e-05
19 *10:20 reg_rdata[0] 3.83778e-05
20 *15:9 reg_rdata[0] 0.000108016
*RES
1 *136:X *16:8 42.9093 
2 *16:8 reg_rdata[0] 27.3557 
*END

*D_NET *17 0.00440118
*CONN
*P reg_rdata[1] O
*I *137:X O *D sky130_fd_sc_hd__a22o_2
*CAP
1 reg_rdata[1] 0.00110204
2 *137:X 0
3 *17:6 0.00110204
4 reg_rdata[1] reg_rdata[2] 0.000215242
5 reg_rdata[1] *25:15 0.000489719
6 reg_rdata[1] *31:11 0.000352576
7 reg_rdata[1] *33:71 0
8 reg_rdata[1] *47:23 0.000609153
9 pad_pd_en reg_rdata[1] 0.000103118
10 reg_rdata[0] reg_rdata[1] 0.000427297
*RES
1 *137:X *17:6 38 
2 *17:6 reg_rdata[1] 31.1347 
*END

*D_NET *18 0.00307813
*CONN
*P reg_rdata[2] O
*I *138:X O *D sky130_fd_sc_hd__and2_2
*CAP
1 reg_rdata[2] 0.000931925
2 *138:X 0.00027008
3 *18:8 0.00120201
4 *18:8 *138:B 5.70419e-05
5 *18:8 *52:20 5.41288e-05
6 reg_rdata[0] reg_rdata[2] 0.000347703
7 reg_rdata[1] reg_rdata[2] 0.000215242
*RES
1 *138:X *18:8 41.9564 
2 *18:8 reg_rdata[2] 21.6355 
*END

*D_NET *19 0.00322248
*CONN
*P reg_rdata[3] O
*I *139:X O *D sky130_fd_sc_hd__and2_2
*CAP
1 reg_rdata[3] 0.001125
2 *139:X 0
3 *19:6 0.001125
4 reg_rdata[3] *142:B 0.000169674
5 reg_rdata[3] *154:S 0
6 reg_rdata[3] *22:8 0.000356645
7 reg_rdata[3] *23:8 6.54744e-05
8 reg_rdata[3] *28:13 0.000105644
9 *154:A1 reg_rdata[3] 0.000210762
10 *11:10 reg_rdata[3] 6.42902e-05
*RES
1 *139:X *19:6 38 
2 *19:6 reg_rdata[3] 31.8737 
*END

*D_NET *20 0.00346195
*CONN
*P reg_rdata[4] O
*I *140:X O *D sky130_fd_sc_hd__and2_2
*CAP
1 reg_rdata[4] 0.000966522
2 *140:X 0.000119031
3 *20:12 0.00108555
4 reg_rdata[4] reg_rdata[5] 0.000104764
5 reg_rdata[4] reg_rdata[7] 6.85582e-05
6 reg_rdata[4] *29:13 0
7 *20:12 *44:52 4.02885e-05
8 *20:12 *51:29 6.84565e-05
9 pad_schmitt_en reg_rdata[4] 0.00095315
10 *13:24 *20:12 5.56279e-05
*RES
1 *140:X *20:12 48.7032 
2 *20:12 reg_rdata[4] 3.35627 
*END

*D_NET *21 0.000906676
*CONN
*P reg_rdata[5] O
*I *141:X O *D sky130_fd_sc_hd__and2_2
*CAP
1 reg_rdata[5] 0.000144141
2 *141:X 0.000165031
3 *21:10 0.000309172
4 reg_rdata[5] *29:13 8.73764e-05
5 *21:10 *141:B 9.61919e-05
6 reg_rdata[4] reg_rdata[5] 0.000104764
*RES
1 *141:X *21:10 49.8425 
2 *21:10 reg_rdata[5] 0.843733 
*END

*D_NET *22 0.00164347
*CONN
*P reg_rdata[6] O
*I *142:X O *D sky130_fd_sc_hd__and2_2
*CAP
1 reg_rdata[6] 0.000162669
2 *142:X 0.000397825
3 *22:8 0.000560494
4 reg_rdata[6] *30:11 7.84616e-05
5 reg_rdata[6] *32:13 8.73764e-05
6 reg_rdata[3] *22:8 0.000356645
*RES
1 *142:X *22:8 47.4768 
2 *22:8 reg_rdata[6] 8.84373 
*END

*D_NET *23 0.00101198
*CONN
*P reg_rdata[7] O
*I *143:X O *D sky130_fd_sc_hd__and2_2
*CAP
1 reg_rdata[7] 0.000159918
2 *143:X 0.000198299
3 *23:8 0.000358217
4 reg_rdata[7] *24:13 8.73764e-05
5 *23:8 *142:B 2.8241e-05
6 *23:8 *44:76 4.58924e-05
7 reg_rdata[3] *23:8 6.54744e-05
8 reg_rdata[4] reg_rdata[7] 6.85582e-05
*RES
1 *143:X *23:8 42.5468 
2 *23:8 reg_rdata[7] 8.84373 
*END

*D_NET *24 0.00328972
*CONN
*P reg_wdata[0] I
*I *148:A0 I *D sky130_fd_sc_hd__mux2_1
*CAP
1 reg_wdata[0] 0.00117887
2 *148:A0 0
3 *24:13 0.00117887
4 *24:13 *148:S 0.000123558
5 *24:13 *32:13 0.000200879
6 *24:13 *36:10 0.00012733
7 *24:13 *48:25 0.000392844
8 reg_rdata[7] *24:13 8.73764e-05
*RES
1 reg_wdata[0] *24:13 33.3039 
2 *24:13 *148:A0 23 
*END

*D_NET *25 0.00486123
*CONN
*P reg_wdata[1] I
*I *149:A0 I *D sky130_fd_sc_hd__mux2_1
*CAP
1 reg_wdata[1] 0.00171875
2 *149:A0 0
3 *25:15 0.00171875
4 *25:15 *26:17 7.60478e-05
5 *25:15 *27:13 0.000268242
6 pad_pd_en *25:15 8.25811e-05
7 pad_slew[0] *25:15 0
8 pad_slew[1] *25:15 0.000136139
9 reg_rdata[0] *25:15 5.06153e-05
10 reg_rdata[1] *25:15 0.000489719
11 *9:21 *25:15 0.000320398
*RES
1 reg_wdata[1] *25:15 34.177 
2 *25:15 *149:A0 23 
*END

*D_NET *26 0.00468919
*CONN
*P reg_wdata[2] I
*I *150:A0 I *D sky130_fd_sc_hd__mux2_1
*CAP
1 reg_wdata[2] 0.00147104
2 *150:A0 0
3 *26:17 0.00147104
4 *26:17 *159:CLK 1.03642e-05
5 *26:17 *159:D 0.00012736
6 *26:17 *27:13 0.000407765
7 *26:17 *29:13 4.82745e-05
8 *26:17 *31:11 0.000205614
9 *26:17 *32:21 9.9053e-05
10 *26:17 *33:9 0
11 *26:17 *33:29 0
12 *26:17 *39:10 0.000203265
13 *26:17 *48:14 0
14 pad_slew[0] *26:17 5.79413e-06
15 *151:A1 *26:17 0.000563579
16 *25:15 *26:17 7.60478e-05
*RES
1 reg_wdata[2] *26:17 45.2082 
2 *26:17 *150:A0 23 
*END

*D_NET *27 0.00283714
*CONN
*P reg_wdata[3] I
*I *151:A0 I *D sky130_fd_sc_hd__mux2_1
*CAP
1 reg_wdata[3] 0.000649224
2 *151:A0 0
3 *27:13 0.000649224
4 *27:13 *151:S 0.000180218
5 *27:13 *29:13 0.000187156
6 *27:13 *39:10 0.000336501
7 *27:13 *49:60 3.4299e-05
8 pad_slew[0] *27:13 2.60267e-05
9 *151:A1 *27:13 9.84851e-05
10 *25:15 *27:13 0.000268242
11 *26:17 *27:13 0.000407765
*RES
1 reg_wdata[3] *27:13 32.6998 
2 *27:13 *151:A0 23 
*END

*D_NET *28 0.00396226
*CONN
*P reg_wdata[4] I
*I *152:A0 I *D sky130_fd_sc_hd__mux2_1
*CAP
1 reg_wdata[4] 0.00114465
2 *152:A0 0
3 *28:13 0.00114465
4 *28:13 *154:S 0.000235422
5 *28:13 *30:11 0.000609165
6 *28:13 *32:13 0
7 *28:13 *33:43 1.12487e-05
8 *28:13 *42:8 0
9 *28:13 *47:60 5.50049e-05
10 *28:13 *47:64 0.000616658
11 reg_rdata[3] *28:13 0.000105644
12 *13:12 *28:13 7.53384e-06
13 *13:24 *28:13 3.22879e-05
*RES
1 reg_wdata[4] *28:13 45.717 
2 *28:13 *152:A0 23 
*END

*D_NET *29 0.00321943
*CONN
*P reg_wdata[5] I
*I *153:A0 I *D sky130_fd_sc_hd__mux2_1
*CAP
1 reg_wdata[5] 0.00097522
2 *153:A0 0
3 *29:13 0.00097522
4 *29:13 *153:A1 5.79559e-05
5 *29:13 *32:13 0.000476406
6 *29:13 *47:53 2.69729e-05
7 *29:13 *47:60 0.000100061
8 *29:13 *48:14 0
9 *29:13 *48:25 0
10 pad_schmitt_en *29:13 0
11 pad_slew[0] *29:13 0.000161701
12 reg_rdata[4] *29:13 0
13 reg_rdata[5] *29:13 8.73764e-05
14 *13:24 *29:13 0.000123082
15 *26:17 *29:13 4.82745e-05
16 *27:13 *29:13 0.000187156
*RES
1 reg_wdata[5] *29:13 35.7271 
2 *29:13 *153:A0 23 
*END

*D_NET *30 0.00186966
*CONN
*P reg_wdata[6] I
*I *154:A0 I *D sky130_fd_sc_hd__mux2_1
*CAP
1 reg_wdata[6] 0.000591018
2 *154:A0 0
3 *30:11 0.000591018
4 *30:11 *32:13 0
5 reg_rdata[6] *30:11 7.84616e-05
6 *28:13 *30:11 0.000609165
*RES
1 reg_wdata[6] *30:11 30.3915 
2 *30:11 *154:A0 23 
*END

*D_NET *31 0.00282411
*CONN
*P reg_wdata[7] I
*I *155:A0 I *D sky130_fd_sc_hd__mux2_1
*CAP
1 reg_wdata[7] 0.00105612
2 *155:A0 0
3 *31:11 0.00105612
4 *31:11 *33:9 0.000153684
5 reg_rdata[1] *31:11 0.000352576
6 *26:17 *31:11 0.000205614
*RES
1 reg_wdata[7] *31:11 31.6535 
2 *31:11 *155:A0 23 
*END

*D_NET *32 0.00663347
*CONN
*P reg_we I
*I *147:C_N I *D sky130_fd_sc_hd__or3b_2
*CAP
1 reg_we 0.00175892
2 *147:C_N 0
3 *32:21 0.000493412
4 *32:13 0.00225233
5 *32:13 *144:A 5.40337e-05
6 *32:13 *161:CLK 1.59071e-05
7 *32:13 *161:D 5.50049e-05
8 *32:13 *33:29 0
9 *32:13 *33:43 0
10 *32:13 *40:8 0.000141879
11 *32:13 *42:8 0.000232199
12 *32:13 *48:25 0
13 *32:13 *50:10 0
14 *32:13 *51:8 2.86257e-05
15 *32:21 *38:10 6.04267e-05
16 *32:21 *47:10 0.000140259
17 *32:21 *47:17 0.000175903
18 *32:21 *47:39 0.000224605
19 *32:21 *48:14 0
20 pad_slew[1] *32:21 3.70829e-05
21 reg_rdata[6] *32:13 8.73764e-05
22 *150:A1 *32:21 2.4754e-05
23 *10:20 *32:21 7.4416e-05
24 *24:13 *32:13 0.000200879
25 *26:17 *32:21 9.9053e-05
26 *28:13 *32:13 0
27 *29:13 *32:13 0.000476406
28 *30:11 *32:13 0
*RES
1 reg_we *32:13 47.5519 
2 *32:13 *32:21 40.6264 
3 *32:21 *147:C_N 23 
*END

*D_NET *33 0.0122331
*CONN
*P rst_n I
*I *162:RESET_B I *D sky130_fd_sc_hd__dfrtp_2
*I *164:RESET_B I *D sky130_fd_sc_hd__dfrtp_2
*I *165:RESET_B I *D sky130_fd_sc_hd__dfrtp_2
*I *157:RESET_B I *D sky130_fd_sc_hd__dfrtp_2
*I *158:RESET_B I *D sky130_fd_sc_hd__dfrtp_2
*I *156:RESET_B I *D sky130_fd_sc_hd__dfrtp_2
*I *160:RESET_B I *D sky130_fd_sc_hd__dfrtp_2
*I *161:RESET_B I *D sky130_fd_sc_hd__dfrtp_2
*I *159:RESET_B I *D sky130_fd_sc_hd__dfrtp_2
*I *163:RESET_B I *D sky130_fd_sc_hd__dfrtp_2
*CAP
1 rst_n 0.000997051
2 *162:RESET_B 0.000168932
3 *164:RESET_B 0.00028953
4 *165:RESET_B 4.4718e-05
5 *157:RESET_B 0.000292692
6 *158:RESET_B 0.00013394
7 *156:RESET_B 0.00108715
8 *160:RESET_B 2.68653e-05
9 *161:RESET_B 3.53968e-05
10 *159:RESET_B 8.05115e-05
11 *163:RESET_B 4.08008e-05
12 *33:71 0.000888662
13 *33:69 0.000571312
14 *33:67 0.00050469
15 *33:47 0.00100612
16 *33:43 0.000601594
17 *33:29 0.000513486
18 *33:19 0.000352576
19 *33:9 0.0012218
20 *156:RESET_B *156:D 0.000318037
21 *156:RESET_B *160:D 0.000118041
22 *156:RESET_B *50:34 3.88859e-05
23 *158:RESET_B *38:10 0
24 *158:RESET_B *47:23 2.79004e-05
25 *161:RESET_B *51:8 1.19087e-05
26 *162:RESET_B *47:64 0.000109015
27 *165:RESET_B *165:CLK 0.000132736
28 *165:RESET_B *44:46 7.06588e-05
29 *33:9 *143:A 1.02029e-05
30 *33:9 *52:14 0.000160349
31 *33:19 *143:A 0.000102277
32 *33:43 *47:64 0.000250839
33 *33:67 *34:10 1.37349e-05
34 *33:67 *50:34 0.00016046
35 *33:67 *50:36 6.48142e-05
36 *33:69 *161:CLK 3.47781e-05
37 *33:69 *34:10 4.49946e-05
38 *33:69 *50:36 7.39034e-05
39 *33:71 *161:CLK 0.000239411
40 *33:71 *34:10 8.89144e-05
41 *33:71 *37:10 7.03663e-05
42 *33:71 *38:10 0
43 *33:71 *47:23 3.1435e-05
44 *33:71 *47:53 9.97508e-05
45 core_din *33:67 0
46 pad_pd_en *33:67 0
47 pad_pd_en *33:71 0
48 pad_schmitt_en *33:43 0
49 pad_slew[1] *33:71 0
50 reg_rdata[1] *33:71 0
51 *151:A1 *33:9 0
52 *151:A1 *33:19 0
53 *154:A1 *162:RESET_B 7.75329e-06
54 *3:9 *33:67 5.65491e-05
55 *11:10 *162:RESET_B 8.62073e-06
56 *11:10 *33:43 0
57 *12:8 *159:RESET_B 5.2094e-05
58 *12:41 *159:RESET_B 3.7122e-06
59 *12:41 *33:19 8.66355e-05
60 *12:41 *33:29 0.000138184
61 *12:41 *33:43 0.000358075
62 *13:8 *33:43 0.000225275
63 *26:17 *33:9 0
64 *26:17 *33:29 0
65 *28:13 *33:43 1.12487e-05
66 *31:11 *33:9 0.000153684
67 *32:13 *33:29 0
68 *32:13 *33:43 0
*RES
1 rst_n *33:9 23.4994 
2 *33:9 *163:RESET_B 15.5489 
3 *33:9 *33:19 4.01857 
4 *33:19 *159:RESET_B 16.5018 
5 *33:19 *33:29 1.90571 
6 *33:29 *161:RESET_B 15.5489 
7 *33:29 *33:43 10.4193 
8 *33:43 *33:47 15.6214 
9 *33:47 *160:RESET_B 0.548929 
10 *33:47 *156:RESET_B 13.5989 
11 *156:RESET_B *33:67 19.3707 
12 *33:67 *33:69 1.55357 
13 *33:69 *33:71 10.005 
14 *33:71 *158:RESET_B 17.2475 
15 *33:71 *157:RESET_B 18.9046 
16 *33:69 *165:RESET_B 16.5018 
17 *33:67 *164:RESET_B 19.0496 
18 *33:43 *162:RESET_B 18.2211 
*END

*D_NET *34 0.00116072
*CONN
*I *164:D I *D sky130_fd_sc_hd__dfrtp_2
*I *144:X O *D sky130_fd_sc_hd__and2_2
*CAP
1 *164:D 0
2 *144:X 0.00046932
3 *34:10 0.00046932
4 *34:10 *161:CLK 7.44354e-05
5 pad_pd_en *34:10 0
6 *33:67 *34:10 1.37349e-05
7 *33:69 *34:10 4.49946e-05
8 *33:71 *34:10 8.89144e-05
*RES
1 *144:X *34:10 45.3743 
2 *34:10 *164:D 38 
*END

*D_NET *35 0.000938589
*CONN
*I *165:D I *D sky130_fd_sc_hd__dfrtp_2
*I *146:X O *D sky130_fd_sc_hd__and2_2
*CAP
1 *165:D 0
2 *146:X 0.000377397
3 *35:8 0.000377397
4 *35:8 *46:8 2.79004e-05
5 pad_pu_en *35:8 4.35909e-05
6 *136:A1 *35:8 0
7 *145:A1 *35:8 8.62876e-05
8 *6:13 *35:8 2.60152e-05
*RES
1 *146:X *35:8 45.1879 
2 *35:8 *165:D 38 
*END

*D_NET *36 0.00166265
*CONN
*I *156:D I *D sky130_fd_sc_hd__dfrtp_2
*I *148:X O *D sky130_fd_sc_hd__mux2_1
*CAP
1 *156:D 9.74754e-05
2 *148:X 0.000326084
3 *36:10 0.000423559
4 *156:D *160:D 7.53384e-06
5 *156:D *50:26 2.93335e-05
6 *156:D *50:34 3.27222e-05
7 *36:10 *148:S 9.94694e-05
8 *36:10 *48:25 2.70078e-05
9 *36:10 *50:24 3.76157e-05
10 *36:10 *51:46 0.000136486
11 *156:RESET_B *156:D 0.000318037
12 *3:9 *36:10 0
13 *24:13 *36:10 0.00012733
*RES
1 *148:X *36:10 44.4214 
2 *36:10 *156:D 41.48 
*END

*D_NET *37 0.000456179
*CONN
*I *157:D I *D sky130_fd_sc_hd__dfrtp_2
*I *149:X O *D sky130_fd_sc_hd__mux2_1
*CAP
1 *157:D 0
2 *149:X 9.3346e-05
3 *37:10 9.3346e-05
4 *37:10 *47:23 0.00014411
5 *150:A1 *37:10 5.50106e-05
6 *33:71 *37:10 7.03663e-05
*RES
1 *149:X *37:10 40.5271 
2 *37:10 *157:D 38 
*END

*D_NET *38 0.000987786
*CONN
*I *158:D I *D sky130_fd_sc_hd__dfrtp_2
*I *150:X O *D sky130_fd_sc_hd__mux2_1
*CAP
1 *158:D 0
2 *150:X 0.000374782
3 *38:10 0.000374782
4 *38:10 *47:23 0
5 *38:10 *49:23 0
6 pad_slew[1] *38:10 0.000177796
7 *158:RESET_B *38:10 0
8 *32:21 *38:10 6.04267e-05
9 *33:71 *38:10 0
*RES
1 *150:X *38:10 44.4214 
2 *38:10 *158:D 38 
*END

*D_NET *39 0.001868
*CONN
*I *159:D I *D sky130_fd_sc_hd__dfrtp_2
*I *151:X O *D sky130_fd_sc_hd__mux2_1
*CAP
1 *159:D 0.000186491
2 *151:X 0.000340836
3 *39:10 0.000527328
4 *159:D *159:CLK 6.17437e-06
5 *39:10 *43:10 0
6 *39:10 *49:60 8.50366e-05
7 *39:10 *52:14 5.50049e-05
8 *26:17 *159:D 0.00012736
9 *26:17 *39:10 0.000203265
10 *27:13 *39:10 0.000336501
*RES
1 *151:X *39:10 46.1614 
2 *39:10 *159:D 41.9564 
*END

*D_NET *40 0.000830959
*CONN
*I *160:D I *D sky130_fd_sc_hd__dfrtp_2
*I *152:X O *D sky130_fd_sc_hd__mux2_1
*CAP
1 *160:D 0.000198712
2 *152:X 8.30404e-05
3 *40:8 0.000281753
4 *156:D *160:D 7.53384e-06
5 *156:RESET_B *160:D 0.000118041
6 *32:13 *40:8 0.000141879
*RES
1 *152:X *40:8 39.9057 
2 *40:8 *160:D 41.9564 
*END

*D_NET *41 0.00144058
*CONN
*I *161:D I *D sky130_fd_sc_hd__dfrtp_2
*I *153:X O *D sky130_fd_sc_hd__mux2_1
*CAP
1 *161:D 2.73151e-05
2 *153:X 0.000263702
3 *41:10 0.000291017
4 *161:D *51:8 1.05235e-05
5 *41:10 *144:A 5.90805e-05
6 *41:10 *48:14 0.000194318
7 *41:10 *48:25 0.000201854
8 *41:10 *51:29 0.000288141
9 pad_slew[1] *41:10 0
10 *13:24 *41:10 4.96207e-05
11 *32:13 *161:D 5.50049e-05
*RES
1 *153:X *41:10 44.525 
2 *41:10 *161:D 38.6214 
*END

*D_NET *42 0.00116093
*CONN
*I *162:D I *D sky130_fd_sc_hd__dfrtp_2
*I *154:X O *D sky130_fd_sc_hd__mux2_1
*CAP
1 *162:D 0.000250712
2 *154:X 0.00019899
3 *42:8 0.000449702
4 *162:D *50:16 2.93283e-05
5 *28:13 *42:8 0
6 *32:13 *42:8 0.000232199
*RES
1 *154:X *42:8 42.0186 
2 *42:8 *162:D 41.0709 
*END

*D_NET *43 0.00202531
*CONN
*I *163:D I *D sky130_fd_sc_hd__dfrtp_2
*I *155:X O *D sky130_fd_sc_hd__mux2_1
*CAP
1 *163:D 5.39135e-05
2 *155:X 0.00056333
3 *43:10 0.000617243
4 *43:10 *48:14 0.000139657
5 *43:10 *49:12 2.32554e-05
6 *43:10 *49:23 8.72401e-05
7 *43:10 *52:14 0.000540673
8 *39:10 *43:10 0
*RES
1 *155:X *43:10 48.2329 
2 *43:10 *163:D 38.6214 
*END

*D_NET *44 0.00916581
*CONN
*I *137:A2 I *D sky130_fd_sc_hd__a22o_2
*I *143:B I *D sky130_fd_sc_hd__and2_2
*I *142:B I *D sky130_fd_sc_hd__and2_2
*I *139:B I *D sky130_fd_sc_hd__and2_2
*I *141:B I *D sky130_fd_sc_hd__and2_2
*I *140:B I *D sky130_fd_sc_hd__and2_2
*I *136:A2 I *D sky130_fd_sc_hd__a22o_2
*I *138:B I *D sky130_fd_sc_hd__and2_2
*I *134:Y O *D sky130_fd_sc_hd__nor2_2
*CAP
1 *137:A2 0.000183808
2 *143:B 3.65708e-05
3 *142:B 0.000120024
4 *139:B 5.145e-05
5 *141:B 0.000244165
6 *140:B 0
7 *136:A2 2.43935e-05
8 *138:B 0.00047595
9 *134:Y 0
10 *44:76 0.000261655
11 *44:63 0.000334346
12 *44:61 0.000811037
13 *44:52 0.000152523
14 *44:46 0.00140375
15 *44:38 0.000987802
16 *44:19 0.000452553
17 *44:6 0.000576877
18 *138:B *45:10 0
19 *138:B *52:20 0
20 *141:B *143:A 4.97748e-05
21 *141:B *51:59 0.000277129
22 *44:19 *45:10 0
23 *44:19 *52:20 0
24 *44:46 *165:CLK 0.000106365
25 *44:46 *52:20 0.00013832
26 *44:46 *53:10 0.000136158
27 *44:52 *51:29 0
28 *44:61 *143:A 5.3304e-05
29 *44:61 *48:8 3.42479e-05
30 pad_pu_en *44:19 6.48142e-05
31 pad_pu_en *44:38 6.15915e-05
32 pad_schmitt_en *141:B 4.36457e-05
33 pad_schmitt_en *142:B 0.000215131
34 pad_schmitt_en *44:76 0.00018223
35 pad_slew[1] *44:52 0.00010909
36 reg_rdata[3] *142:B 0.000169674
37 *136:A1 *44:38 0
38 *137:B2 *137:A2 2.02517e-05
39 *137:B2 *44:46 7.58767e-05
40 *165:RESET_B *44:46 7.06588e-05
41 *9:10 *138:B 0
42 *10:8 *138:B 0.000187573
43 *10:8 *44:19 0.000101098
44 *10:12 *136:A2 4.01471e-05
45 *11:10 *142:B 3.92407e-05
46 *15:9 *138:B 7.55832e-05
47 *15:20 *138:B 9.85198e-05
48 *16:8 *136:A2 4.01471e-05
49 *16:8 *137:A2 8.264e-05
50 *16:8 *44:38 0.000308039
51 *18:8 *138:B 5.70419e-05
52 *20:12 *44:52 4.02885e-05
53 *21:10 *141:B 9.61919e-05
54 *23:8 *142:B 2.8241e-05
55 *23:8 *44:76 4.58924e-05
*RES
1 *134:Y *44:6 38 
2 *44:6 *138:B 48.875 
3 *44:6 *44:19 2.25786 
4 *44:19 *136:A2 38.8286 
5 *44:19 *44:38 20.4479 
6 *44:38 *44:46 39.6736 
7 *44:46 *44:52 32.9621 
8 *44:52 *140:B 23 
9 *44:46 *44:61 12.5529 
10 *44:61 *44:63 15 
11 *44:63 *141:B 44.4007 
12 *44:63 *44:76 2.61 
13 *44:76 *139:B 38.6214 
14 *44:76 *142:B 41.9357 
15 *44:61 *143:B 23.6214 
16 *44:38 *137:A2 25.9466 
*END

*D_NET *45 0.0015969
*CONN
*I *137:B1 I *D sky130_fd_sc_hd__a22o_2
*I *136:B1 I *D sky130_fd_sc_hd__a22o_2
*I *135:X O *D sky130_fd_sc_hd__and2b_2
*CAP
1 *137:B1 6.20468e-05
2 *136:B1 0
3 *135:X 0.000441255
4 *45:12 6.20468e-05
5 *45:10 0.000441255
6 *45:10 *52:20 0.000162478
7 *136:A1 *137:B1 5.50106e-05
8 *137:A1 *137:B1 5.50106e-05
9 *137:B2 *137:B1 9.84851e-05
10 *138:B *45:10 0
11 *9:10 *45:10 1.01436e-05
12 *10:12 *137:B1 0.000181125
13 *16:8 *137:B1 2.80394e-05
14 *44:19 *45:10 0
*RES
1 *135:X *45:10 46.2857 
2 *45:10 *45:12 15 
3 *45:12 *136:B1 23 
4 *45:12 *137:B1 25.5271 
*END

*D_NET *46 0.000334301
*CONN
*I *146:B I *D sky130_fd_sc_hd__and2_2
*I *145:X O *D sky130_fd_sc_hd__mux2_1
*CAP
1 *146:B 4.24511e-05
2 *145:X 6.95809e-05
3 *46:8 0.000112032
4 *136:A1 *46:8 2.46922e-05
5 *145:A1 *46:8 0
6 *8:23 *46:8 5.76445e-05
7 *35:8 *46:8 2.79004e-05
*RES
1 *145:X *46:8 39.9057 
2 *46:8 *146:B 38.6214 
*END

*D_NET *47 0.0128257
*CONN
*I *150:S I *D sky130_fd_sc_hd__mux2_1
*I *152:S I *D sky130_fd_sc_hd__mux2_1
*I *154:S I *D sky130_fd_sc_hd__mux2_1
*I *148:S I *D sky130_fd_sc_hd__mux2_1
*I *153:S I *D sky130_fd_sc_hd__mux2_1
*I *151:S I *D sky130_fd_sc_hd__mux2_1
*I *155:S I *D sky130_fd_sc_hd__mux2_1
*I *149:S I *D sky130_fd_sc_hd__mux2_1
*I *147:X O *D sky130_fd_sc_hd__or3b_2
*CAP
1 *150:S 0
2 *152:S 0
3 *154:S 0.000134941
4 *148:S 0.000513815
5 *153:S 0
6 *151:S 0.000448392
7 *155:S 4.31507e-05
8 *149:S 0
9 *147:X 0.000200744
10 *47:64 0.000924381
11 *47:60 0.000455607
12 *47:53 0.00113579
13 *47:39 0.00100554
14 *47:23 0.000787695
15 *47:17 0.000427816
16 *47:10 0.000282683
17 *148:S *48:25 0.000228835
18 *148:S *50:10 0.000193485
19 *151:S *52:14 0.00131589
20 *155:S *155:A1 5.50049e-05
21 *155:S *52:14 9.58714e-05
22 *47:53 *153:A1 7.43209e-05
23 *47:53 *161:CLK 0.000106956
24 *47:53 *51:29 0
25 *47:53 *51:46 0
26 pad_slew[1] *47:53 0.000282453
27 reg_rdata[1] *47:23 0.000609153
28 reg_rdata[3] *154:S 0
29 *148:A1 *148:S 5.50106e-05
30 *150:A1 *47:17 0.000135037
31 *150:A1 *47:39 0.000213869
32 *151:A1 *151:S 2.4754e-05
33 *154:A1 *154:S 0
34 *154:A1 *47:64 0
35 *158:RESET_B *47:23 2.79004e-05
36 *162:RESET_B *47:64 0.000109015
37 *3:9 *47:53 0.000255292
38 *13:12 *47:60 1.76557e-05
39 *13:24 *47:53 0.000102492
40 *13:24 *47:60 5.79042e-05
41 *24:13 *148:S 0.000123558
42 *27:13 *151:S 0.000180218
43 *28:13 *154:S 0.000235422
44 *28:13 *47:60 5.50049e-05
45 *28:13 *47:64 0.000616658
46 *29:13 *47:53 2.69729e-05
47 *29:13 *47:60 0.000100061
48 *32:21 *47:10 0.000140259
49 *32:21 *47:17 0.000175903
50 *32:21 *47:39 0.000224605
51 *33:43 *47:64 0.000250839
52 *33:71 *47:23 3.1435e-05
53 *33:71 *47:53 9.97508e-05
54 *36:10 *148:S 9.94694e-05
55 *37:10 *47:23 0.00014411
56 *38:10 *47:23 0
*RES
1 *147:X *47:10 26.8736 
2 *47:10 *149:S 23 
3 *47:10 *47:17 2.05071 
4 *47:17 *47:23 38.2443 
5 *47:23 *155:S 24.0979 
6 *47:23 *151:S 37.4379 
7 *47:17 *47:39 2.52714 
8 *47:39 *47:53 48.56 
9 *47:53 *153:S 23 
10 *47:53 *47:60 3.95643 
11 *47:60 *47:64 23.2443 
12 *47:64 *148:S 49.5793 
13 *47:64 *154:S 41.3143 
14 *47:60 *152:S 23 
15 *47:39 *150:S 23 
*END

*D_NET *48 0.00467116
*CONN
*I *169:A I *D sky130_fd_sc_hd__clkbuf_16
*I *168:A I *D sky130_fd_sc_hd__clkbuf_16
*I *167:X O *D sky130_fd_sc_hd__clkbuf_16
*CAP
1 *169:A 0
2 *168:A 0
3 *167:X 7.93496e-05
4 *48:25 0.000618077
5 *48:14 0.000661515
6 *48:8 0.00135894
7 *48:14 *158:CLK 5.40241e-05
8 *48:14 *159:CLK 7.33044e-05
9 *48:14 *49:12 3.05027e-05
10 *48:14 *49:23 6.22448e-06
11 *48:25 *50:10 0.000133652
12 *48:25 *51:29 6.2783e-05
13 *48:25 *51:46 0.00037403
14 pad_slew[1] *48:14 0
15 *148:S *48:25 0.000228835
16 *24:13 *48:25 0.000392844
17 *26:17 *48:14 0
18 *29:13 *48:14 0
19 *29:13 *48:25 0
20 *32:13 *48:25 0
21 *32:21 *48:14 0
22 *36:10 *48:25 2.70078e-05
23 *41:10 *48:14 0.000194318
24 *41:10 *48:25 0.000201854
25 *43:10 *48:14 0.000139657
26 *44:61 *48:8 3.42479e-05
*RES
1 *167:X *48:8 39.0979 
2 *48:8 *48:14 27.5321 
3 *48:14 *168:A 23 
4 *48:8 *48:25 29.9971 
5 *48:25 *169:A 23 
*END

*D_NET *49 0.00345765
*CONN
*I *170:A I *D sky130_fd_sc_hd__clkbuf_8
*I *159:CLK I *D sky130_fd_sc_hd__dfrtp_2
*I *163:CLK I *D sky130_fd_sc_hd__dfrtp_2
*I *157:CLK I *D sky130_fd_sc_hd__dfrtp_2
*I *158:CLK I *D sky130_fd_sc_hd__dfrtp_2
*I *168:X O *D sky130_fd_sc_hd__clkbuf_16
*CAP
1 *170:A 0
2 *159:CLK 0.000299457
3 *163:CLK 0
4 *157:CLK 0.000293476
5 *158:CLK 9.83018e-05
6 *168:X 0.0001981
7 *49:60 0.000120661
8 *49:25 0.000293476
9 *49:23 0.000448384
10 *49:12 0.000611916
11 *49:6 0.000683449
12 pad_slew[1] *159:CLK 0
13 *150:A1 *159:CLK 0
14 *159:D *159:CLK 6.17437e-06
15 *26:17 *159:CLK 1.03642e-05
16 *27:13 *49:60 3.4299e-05
17 *38:10 *49:23 0
18 *39:10 *49:60 8.50366e-05
19 *43:10 *49:12 2.32554e-05
20 *43:10 *49:23 8.72401e-05
21 *48:14 *158:CLK 5.40241e-05
22 *48:14 *159:CLK 7.33044e-05
23 *48:14 *49:12 3.05027e-05
24 *48:14 *49:23 6.22448e-06
*RES
1 *168:X *49:6 25.0507 
2 *49:6 *49:12 19.8057 
3 *49:12 *158:CLK 40.0507 
4 *49:12 *49:23 2.96214 
5 *49:23 *49:25 15 
6 *49:25 *157:CLK 27.9093 
7 *49:25 *163:CLK 23 
8 *49:23 *159:CLK 43.4479 
9 *49:6 *49:60 32.2579 
10 *49:60 *170:A 23 
*END

*D_NET *50 0.00680421
*CONN
*I *162:CLK I *D sky130_fd_sc_hd__dfrtp_2
*I *160:CLK I *D sky130_fd_sc_hd__dfrtp_2
*I *156:CLK I *D sky130_fd_sc_hd__dfrtp_2
*I *164:CLK I *D sky130_fd_sc_hd__dfrtp_2
*I *165:CLK I *D sky130_fd_sc_hd__dfrtp_2
*I *161:CLK I *D sky130_fd_sc_hd__dfrtp_2
*I *169:X O *D sky130_fd_sc_hd__clkbuf_16
*CAP
1 *162:CLK 0
2 *160:CLK 0
3 *156:CLK 0
4 *164:CLK 0
5 *165:CLK 0.000814234
6 *161:CLK 0.000390809
7 *169:X 0.000379838
8 *50:36 0.00125645
9 *50:34 0.000389028
10 *50:26 0.000363721
11 *50:24 0.000236072
12 *50:16 0.00035431
13 *50:10 0.000524174
14 *161:CLK *144:A 0.000100061
15 *50:16 *51:46 4.21062e-05
16 *50:24 *51:46 0.000100069
17 *148:S *50:10 0.000193485
18 *156:D *50:26 2.93335e-05
19 *156:D *50:34 3.27222e-05
20 *156:RESET_B *50:34 3.88859e-05
21 *162:D *50:16 2.93283e-05
22 *165:RESET_B *165:CLK 0.000132736
23 *3:9 *161:CLK 3.70094e-05
24 *3:9 *50:24 0
25 *3:9 *50:34 0.000169665
26 *3:9 *50:36 0.000141879
27 *32:13 *161:CLK 1.59071e-05
28 *32:13 *50:10 0
29 *33:67 *50:34 0.00016046
30 *33:67 *50:36 6.48142e-05
31 *33:69 *161:CLK 3.47781e-05
32 *33:69 *50:36 7.39034e-05
33 *33:71 *161:CLK 0.000239411
34 *34:10 *161:CLK 7.44354e-05
35 *36:10 *50:24 3.76157e-05
36 *44:46 *165:CLK 0.000106365
37 *47:53 *161:CLK 0.000106956
38 *48:25 *50:10 0.000133652
*RES
1 *169:X *50:10 43.8621 
2 *50:10 *50:16 17.5479 
3 *50:16 *50:24 34.06 
4 *50:24 *50:26 0.621429 
5 *50:26 *50:34 21.5871 
6 *50:34 *50:36 1.90571 
7 *50:36 *161:CLK 46.5757 
8 *50:36 *165:CLK 48.5229 
9 *50:34 *164:CLK 38 
10 *50:26 *156:CLK 23 
11 *50:24 *160:CLK 23 
12 *50:16 *162:CLK 23 
*END

*D_NET *51 0.00660406
*CONN
*I *141:A I *D sky130_fd_sc_hd__and2_2
*I *146:A I *D sky130_fd_sc_hd__and2_2
*I *153:A1 I *D sky130_fd_sc_hd__mux2_1
*I *144:A I *D sky130_fd_sc_hd__and2_2
*I *161:Q O *D sky130_fd_sc_hd__dfrtp_2
*CAP
1 *141:A 0
2 *146:A 0
3 *153:A1 5.14593e-05
4 *144:A 0.000146693
5 *161:Q 0
6 *51:59 0.000132067
7 *51:46 0.000961603
8 *51:29 0.00126399
9 *51:8 0.00111616
10 *51:4 0.000850605
11 *51:59 *143:A 0.000277129
12 pad_slew[1] *51:29 0
13 *141:B *51:59 0.000277129
14 *161:CLK *144:A 0.000100061
15 *161:D *51:8 1.05235e-05
16 *161:RESET_B *51:8 1.19087e-05
17 *13:24 *153:A1 5.86341e-05
18 *20:12 *51:29 6.84565e-05
19 *29:13 *153:A1 5.79559e-05
20 *32:13 *144:A 5.40337e-05
21 *32:13 *51:8 2.86257e-05
22 *36:10 *51:46 0.000136486
23 *41:10 *144:A 5.90805e-05
24 *41:10 *51:29 0.000288141
25 *44:52 *51:29 0
26 *47:53 *153:A1 7.43209e-05
27 *47:53 *51:29 0
28 *47:53 *51:46 0
29 *48:25 *51:29 6.2783e-05
30 *48:25 *51:46 0.00037403
31 *50:16 *51:46 4.21062e-05
32 *50:24 *51:46 0.000100069
*RES
1 *161:Q *51:4 23 
2 *51:4 *51:8 23.7207 
3 *51:8 *144:A 41.5421 
4 *51:8 *51:29 5.84143 
5 *51:29 *153:A1 39.5743 
6 *51:29 *51:46 32.6279 
7 *51:46 *146:A 23 
8 *51:4 *51:59 34.2879 
9 *51:59 *141:A 23 
*END

*D_NET *52 0.00968046
*CONN
*I *143:A I *D sky130_fd_sc_hd__and2_2
*I *155:A1 I *D sky130_fd_sc_hd__mux2_1
*I *145:S I *D sky130_fd_sc_hd__mux2_1
*I *163:Q O *D sky130_fd_sc_hd__dfrtp_2
*CAP
1 *143:A 0.000334106
2 *155:A1 4.27936e-05
3 *145:S 0.000217421
4 *163:Q 0
5 *52:20 0.00101776
6 *52:14 0.00170607
7 *52:6 0.00119704
8 core_din *52:20 5.79893e-05
9 pad_schmitt_en *143:A 2.11066e-05
10 reg_rdata[0] *52:20 0.000247666
11 *137:B2 *52:20 0.000132352
12 *138:B *52:20 0
13 *141:B *143:A 4.97748e-05
14 *151:S *52:14 0.00131589
15 *155:S *155:A1 5.50049e-05
16 *155:S *52:14 9.58714e-05
17 *6:13 *145:S 5.67058e-05
18 *6:26 *145:S 0.000253936
19 *6:26 *52:20 0.000636815
20 *9:10 *52:20 0.000144158
21 *10:20 *52:20 8.62783e-05
22 *12:41 *143:A 0.000457857
23 *18:8 *52:20 5.41288e-05
24 *33:9 *143:A 1.02029e-05
25 *33:9 *52:14 0.000160349
26 *33:19 *143:A 0.000102277
27 *39:10 *52:14 5.50049e-05
28 *43:10 *52:14 0.000540673
29 *44:19 *52:20 0
30 *44:46 *52:20 0.00013832
31 *44:61 *143:A 5.3304e-05
32 *45:10 *52:20 0.000162478
33 *51:59 *143:A 0.000277129
*RES
1 *163:Q *52:6 38 
2 *52:6 *52:14 37.5164 
3 *52:14 *52:20 36.9157 
4 *52:20 *145:S 42.4329 
5 *52:14 *155:A1 24.0979 
6 *52:6 *143:A 47.9221 
*END

*D_NET *53 0.000982111
*CONN
*I *144:B I *D sky130_fd_sc_hd__and2_2
*I *165:Q O *D sky130_fd_sc_hd__dfrtp_2
*CAP
1 *144:B 0
2 *165:Q 0.000341892
3 *53:10 0.000341892
4 pad_slew[1] *53:10 0.000162169
5 *44:46 *53:10 0.000136158
*RES
1 *165:Q *53:10 43.2614 
2 *53:10 *144:B 38 
*END
