*SPEF "ieee 1481-1999"
*DESIGN "io_pad_wrapper"
*DATE "06:13:09 Sunday July 26, 2026"
*VENDOR "The OpenROAD Project"
*PROGRAM "OpenROAD"
*VERSION "b16bda7e82721d10566ff7e2b68f1ff0be9f9e38"
*DESIGN_FLOW "NAME_SCOPE LOCAL" "PIN_CAP NONE"
*DIVIDER /
*DELIMITER :
*BUS_DELIMITER []
*T_UNIT 1 NS
*C_UNIT 1 PF
*R_UNIT 1 OHM
*L_UNIT 1 HENRY

*NAME_MAP
*3 clk
*4 core_din
*5 core_dout
*6 pad_din_raw
*7 pad_dout
*8 pad_oe
*9 pad_pd_en
*10 pad_pu_en
*11 pad_schmitt_en
*12 pad_slew[0]
*13 pad_slew[1]
*14 reg_addr[0]
*15 reg_addr[1]
*16 reg_rdata[0]
*17 reg_rdata[1]
*18 reg_rdata[2]
*19 reg_rdata[3]
*20 reg_rdata[4]
*21 reg_rdata[5]
*22 reg_rdata[6]
*23 reg_rdata[7]
*24 reg_wdata[0]
*25 reg_wdata[1]
*26 reg_wdata[2]
*27 reg_wdata[3]
*28 reg_wdata[4]
*29 reg_wdata[5]
*30 reg_wdata[6]
*31 reg_wdata[7]
*32 reg_we
*33 rst_n
*34 _00_
*35 _01_
*36 _02_
*37 _03_
*38 _04_
*39 _05_
*40 _06_
*41 _07_
*42 _08_
*43 _09_
*44 _10_
*45 _11_
*46 _12_
*47 _13_
*48 clknet_0_clk
*49 clknet_1_0__leaf_clk
*50 clknet_1_1__leaf_clk
*51 ie
*52 loopback_en
*53 sync_ff1
*54 FILLER_0_0_15
*55 FILLER_0_0_29
*56 FILLER_0_0_3
*57 FILLER_0_0_46
*58 FILLER_0_0_57
*59 FILLER_0_10_15
*60 FILLER_0_10_27
*61 FILLER_0_10_29
*62 FILLER_0_10_3
*63 FILLER_0_10_41
*64 FILLER_0_10_45
*65 FILLER_0_10_55
*66 FILLER_0_10_57
*67 FILLER_0_1_3
*68 FILLER_0_1_34
*69 FILLER_0_1_55
*70 FILLER_0_1_57
*71 FILLER_0_2_29
*72 FILLER_0_2_3
*73 FILLER_0_2_58
*74 FILLER_0_2_62
*75 FILLER_0_3_3
*76 FILLER_0_4_24
*77 FILLER_0_4_3
*78 FILLER_0_4_35
*79 FILLER_0_4_58
*80 FILLER_0_4_62
*81 FILLER_0_4_7
*82 FILLER_0_5_3
*83 FILLER_0_5_48
*84 FILLER_0_6_29
*85 FILLER_0_6_3
*86 FILLER_0_6_61
*87 FILLER_0_7_3
*88 FILLER_0_8_15
*89 FILLER_0_8_27
*90 FILLER_0_8_29
*91 FILLER_0_8_3
*92 FILLER_0_8_58
*93 FILLER_0_8_62
*94 FILLER_0_9_14
*95 FILLER_0_9_3
*96 FILLER_0_9_55
*97 FILLER_0_9_57
*98 FILLER_0_9_9
*99 PHY_EDGE_ROW_0_Left_11
*100 PHY_EDGE_ROW_0_Right_0
*101 PHY_EDGE_ROW_10_Left_21
*102 PHY_EDGE_ROW_10_Right_10
*103 PHY_EDGE_ROW_1_Left_12
*104 PHY_EDGE_ROW_1_Right_1
*105 PHY_EDGE_ROW_2_Left_13
*106 PHY_EDGE_ROW_2_Right_2
*107 PHY_EDGE_ROW_3_Left_14
*108 PHY_EDGE_ROW_3_Right_3
*109 PHY_EDGE_ROW_4_Left_15
*110 PHY_EDGE_ROW_4_Right_4
*111 PHY_EDGE_ROW_5_Left_16
*112 PHY_EDGE_ROW_5_Right_5
*113 PHY_EDGE_ROW_6_Left_17
*114 PHY_EDGE_ROW_6_Right_6
*115 PHY_EDGE_ROW_7_Left_18
*116 PHY_EDGE_ROW_7_Right_7
*117 PHY_EDGE_ROW_8_Left_19
*118 PHY_EDGE_ROW_8_Right_8
*119 PHY_EDGE_ROW_9_Left_20
*120 PHY_EDGE_ROW_9_Right_9
*121 TAP_TAPCELL_ROW_0_22
*122 TAP_TAPCELL_ROW_0_23
*123 TAP_TAPCELL_ROW_10_33
*124 TAP_TAPCELL_ROW_10_34
*125 TAP_TAPCELL_ROW_1_24
*126 TAP_TAPCELL_ROW_2_25
*127 TAP_TAPCELL_ROW_3_26
*128 TAP_TAPCELL_ROW_4_27
*129 TAP_TAPCELL_ROW_5_28
*130 TAP_TAPCELL_ROW_6_29
*131 TAP_TAPCELL_ROW_7_30
*132 TAP_TAPCELL_ROW_8_31
*133 TAP_TAPCELL_ROW_9_32
*134 _14_
*135 _15_
*136 _16_
*137 _17_
*138 _18_
*139 _19_
*140 _20_
*141 _21_
*142 _22_
*143 _23_
*144 _24_
*145 _25_
*146 _26_
*147 _27_
*148 _28_
*149 _29_
*150 _30_
*151 _31_
*152 _32_
*153 _33_
*154 _34_
*155 _35_
*156 _36_
*157 _37_
*158 _38_
*159 _39_
*160 _40_
*161 _41_
*162 _42_
*163 _43_
*164 _44_
*165 _45_
*166 _46_
*167 clkbuf_0_clk
*168 clkbuf_1_0__f_clk
*169 clkbuf_1_1__f_clk
*170 clkload0

*PORTS
clk I
core_din O
core_dout I
pad_din_raw I
pad_dout O
pad_oe O
pad_pd_en O
pad_pu_en O
pad_schmitt_en O
pad_slew[0] O
pad_slew[1] O
reg_addr[0] I
reg_addr[1] I
reg_rdata[0] O
reg_rdata[1] O
reg_rdata[2] O
reg_rdata[3] O
reg_rdata[4] O
reg_rdata[5] O
reg_rdata[6] O
reg_rdata[7] O
reg_wdata[0] I
reg_wdata[1] I
reg_wdata[2] I
reg_wdata[3] I
reg_wdata[4] I
reg_wdata[5] I
reg_wdata[6] I
reg_wdata[7] I
reg_we I
rst_n I

*D_NET *3 0.00394205
*CONN
*P clk I
*I *167:A I *D sky130_fd_sc_hd__clkbuf_16
*CAP
1 clk 0.00157937
2 *167:A 0.00157937
3 *167:A core_din 0.000227902
4 *167:A *156:D 0
5 *167:A *161:CLK 3.09164e-05
6 *167:A *33:67 5.18691e-05
7 *167:A *47:53 0.000212505
8 *167:A *50:24 0
9 *167:A *50:34 0.000141592
10 *167:A *50:36 0.00011852
*RES
1 clk *167:A 24.9184 
*END

*D_NET *4 0.00465752
*CONN
*P core_din O
*I *137:B2 I *D sky130_fd_sc_hd__a22o_2
*I *164:Q O *D sky130_fd_sc_hd__dfrtp_2
*CAP
1 core_din 0.00107891
2 *137:B2 0.000229038
3 *164:Q 0.000347679
4 *4:8 0.00165563
5 core_din pad_pd_en 5.59628e-05
6 core_din *136:A1 0
7 core_din *136:B2 6.59587e-06
8 core_din *145:S 5.53756e-05
9 core_din *148:A1 6.89705e-05
10 core_din *5:9 0.000140884
11 core_din *8:8 8.66107e-06
12 core_din *8:23 5.2853e-05
13 core_din *33:67 0
14 *137:B2 pad_pd_en 0.000342374
15 *137:B2 reg_rdata[0] 8.14685e-05
16 *137:B2 *137:A2 1.85674e-05
17 *137:B2 *137:B1 8.65961e-05
18 *137:B2 *145:S 0.000130192
19 *137:B2 *44:46 6.98515e-05
20 *167:A core_din 0.000227902
*RES
1 *164:Q *4:8 7.155 
2 *4:8 *137:B2 10.56 
3 *4:8 core_din 15.8908 
*END

*D_NET *5 0.0023572
*CONN
*P core_dout I
*I *166:A I *D sky130_fd_sc_hd__buf_2
*I *145:A1 I *D sky130_fd_sc_hd__mux2_1
*CAP
1 core_dout 0.000489719
2 *166:A 2.32169e-05
3 *145:A1 0.000174549
4 *5:9 0.000687485
5 *145:A1 *136:B2 7.00889e-06
6 *145:A1 *146:B 0
7 *145:A1 *148:A1 0
8 *145:A1 *165:D 7.23602e-05
9 *145:A1 *6:13 0.000345222
10 *145:A1 *8:23 0
11 *166:A pad_dout 2.75229e-05
12 *5:9 *6:13 0.000389232
13 core_din *5:9 0.000140884
*RES
1 core_dout *5:9 7.20637 
2 *5:9 *145:A1 7.725 
3 *5:9 *166:A 4.05 
*END

*D_NET *6 0.00379672
*CONN
*P pad_din_raw I
*I *136:B2 I *D sky130_fd_sc_hd__a22o_2
*I *145:A0 I *D sky130_fd_sc_hd__mux2_1
*CAP
1 pad_din_raw 0.000546366
2 *136:B2 0.000255788
3 *145:A0 0
4 *6:13 0.000802154
5 *136:B2 *136:A1 0.000551139
6 *136:B2 *145:S 0.000755491
7 *6:13 pad_dout 6.35352e-05
8 *6:13 pad_oe 0
9 *6:13 *145:S 4.99619e-05
10 *6:13 *165:D 2.42236e-05
11 core_din *136:B2 6.59587e-06
12 *145:A1 *136:B2 7.00889e-06
13 *145:A1 *6:13 0.000345222
14 *5:9 *6:13 0.000389232
*RES
1 pad_din_raw *6:13 11.1281 
2 *6:13 *145:A0 1.6 
3 *6:13 *136:B2 14.255 
*END

*D_NET *7 0.00107657
*CONN
*P pad_dout O
*I *166:X O *D sky130_fd_sc_hd__buf_2
*CAP
1 pad_dout 0.000459758
2 *166:X 0.000459758
3 pad_dout pad_oe 6.59989e-05
4 *166:A pad_dout 2.75229e-05
5 *6:13 pad_dout 6.35352e-05
*RES
1 *166:X pad_dout 8.63023 
*END

*D_NET *8 0.00356722
*CONN
*P pad_oe O
*I *148:A1 I *D sky130_fd_sc_hd__mux2_1
*I *136:A1 I *D sky130_fd_sc_hd__a22o_2
*I *156:Q O *D sky130_fd_sc_hd__dfrtp_2
*CAP
1 pad_oe 0.000332918
2 *148:A1 0.000429677
3 *136:A1 0.000364337
4 *156:Q 3.56736e-06
5 *8:23 0.000823829
6 *8:8 0.000429138
7 pad_oe pad_pd_en 0.000192938
8 *136:A1 pad_pu_en 0
9 *136:A1 reg_rdata[0] 5.05437e-05
10 *136:A1 *137:B1 4.82919e-05
11 *136:A1 *146:B 2.05571e-05
12 *136:A1 *165:D 0
13 *136:A1 *10:12 2.16833e-05
14 *136:A1 *44:38 0
15 *148:A1 *148:S 4.82919e-05
16 *8:23 *146:B 5.38292e-05
17 core_din *136:A1 0
18 core_din *148:A1 6.89705e-05
19 core_din *8:8 8.66107e-06
20 core_din *8:23 5.2853e-05
21 pad_dout pad_oe 6.59989e-05
22 *136:B2 *136:A1 0.000551139
23 *145:A1 *148:A1 0
24 *145:A1 *8:23 0
25 *6:13 pad_oe 0
*RES
1 *156:Q *8:8 3.8325 
2 *8:8 *136:A1 11.9625 
3 *8:8 *8:23 1.635 
4 *8:23 pad_oe 1.71347 
5 *8:23 *148:A1 10.5525 
*END

*D_NET *9 0.00519016
*CONN
*P pad_pd_en O
*I *150:A1 I *D sky130_fd_sc_hd__mux2_1
*I *138:A I *D sky130_fd_sc_hd__and2_2
*I *158:Q O *D sky130_fd_sc_hd__dfrtp_2
*CAP
1 pad_pd_en 0.000924957
2 *150:A1 0.000190239
3 *138:A 0.00011063
4 *158:Q 0
5 *9:21 0.00140321
6 *9:4 0.000398645
7 pad_pd_en pad_pu_en 0.000114355
8 pad_pd_en pad_schmitt_en 0
9 pad_pd_en reg_rdata[0] 0.000234714
10 pad_pd_en reg_rdata[1] 9.619e-05
11 pad_pd_en *149:A0 6.95753e-05
12 pad_pd_en *164:D 0
13 pad_pd_en *33:67 0
14 pad_pd_en *33:71 0
15 *138:A *138:B 0
16 *138:A *145:S 0.000132713
17 *138:A *45:12 8.53113e-06
18 *150:A1 *147:C_N 2.30292e-05
19 *150:A1 *157:D 4.82919e-05
20 *150:A1 *159:CLK 0
21 *150:A1 *47:17 0.000118081
22 *150:A1 *47:39 0.000188069
23 *9:21 reg_rdata[0] 0.000269659
24 *9:21 *149:A0 0.000267992
25 core_din pad_pd_en 5.59628e-05
26 pad_oe pad_pd_en 0.000192938
27 *137:B2 pad_pd_en 0.000342374
*RES
1 *158:Q *9:4 1.6 
2 *9:4 *138:A 8.255 
3 *9:4 *9:21 7.34 
4 *9:21 *150:A1 7.17 
5 *9:21 pad_pd_en 10.3973 
*END

*D_NET *10 0.00325671
*CONN
*P pad_pu_en O
*I *137:A1 I *D sky130_fd_sc_hd__a22o_2
*I *149:A1 I *D sky130_fd_sc_hd__mux2_1
*I *157:Q O *D sky130_fd_sc_hd__dfrtp_2
*CAP
1 pad_pu_en 0.000429957
2 *137:A1 7.79835e-05
3 *149:A1 0.000121956
4 *157:Q 0.000150692
5 *10:12 0.000454642
6 *10:8 0.000835351
7 pad_pu_en pad_schmitt_en 0.000131216
8 pad_pu_en *165:D 4.20366e-05
9 pad_pu_en *44:19 5.4003e-05
10 pad_pu_en *44:38 5.31042e-05
11 *137:A1 reg_rdata[0] 1.03323e-05
12 *137:A1 *137:B1 4.82919e-05
13 *149:A1 reg_rdata[0] 3.67779e-05
14 *149:A1 *145:S 7.23533e-05
15 *149:A1 *147:C_N 6.97034e-05
16 *10:8 *138:B 0.000157608
17 *10:8 *15:20 7.65181e-05
18 *10:8 *44:19 8.48411e-05
19 *10:12 reg_rdata[0] 1.68065e-05
20 *10:12 *136:A2 3.75356e-05
21 *10:12 *137:B1 0.00015896
22 pad_pd_en pad_pu_en 0.000114355
23 *136:A1 pad_pu_en 0
24 *136:A1 *10:12 2.16833e-05
*RES
1 *157:Q *10:8 6.51 
2 *10:8 *10:12 5.21 
3 *10:12 *149:A1 7.61 
4 *10:12 *137:A1 2.755 
5 *10:8 pad_pu_en 5.3631 
*END

*D_NET *11 0.0068298
*CONN
*P pad_schmitt_en O
*I *154:A1 I *D sky130_fd_sc_hd__mux2_1
*I *142:A I *D sky130_fd_sc_hd__and2_2
*I *162:Q O *D sky130_fd_sc_hd__dfrtp_2
*CAP
1 pad_schmitt_en 0.001844
2 *154:A1 0.000406459
3 *142:A 0
4 *162:Q 4.43494e-05
5 *11:10 0.00191508
6 *11:8 0.000521892
7 pad_schmitt_en pad_slew[0] 0.000314974
8 pad_schmitt_en reg_rdata[4] 0.00080946
9 pad_schmitt_en *139:A 9.4367e-05
10 pad_schmitt_en *141:B 3.72899e-05
11 pad_schmitt_en *142:B 0.000179235
12 pad_schmitt_en *143:A 1.79483e-05
13 pad_schmitt_en *153:A0 0
14 pad_schmitt_en *13:12 5.50989e-05
15 pad_schmitt_en *33:43 0
16 pad_schmitt_en *44:76 0.000152111
17 *154:A1 reg_rdata[3] 0.000196994
18 *154:A1 *154:S 0
19 *154:A1 *162:RESET_B 8.08153e-06
20 *154:A1 *47:64 0
21 *11:10 reg_rdata[3] 5.99925e-05
22 *11:10 *142:B 3.25831e-05
23 *11:10 *162:RESET_B 8.66976e-06
24 *11:10 *33:43 0
25 pad_pd_en pad_schmitt_en 0
26 pad_pu_en pad_schmitt_en 0.000131216
*RES
1 *162:Q *11:8 4.05 
2 *11:8 *11:10 1.635 
3 *11:10 pad_schmitt_en 8.72143 
4 *11:10 *142:A 3.6 
5 *11:8 *154:A1 9.96 
*END

*D_NET *12 0.00683918
*CONN
*P pad_slew[0] O
*I *139:A I *D sky130_fd_sc_hd__and2_2
*I *151:A1 I *D sky130_fd_sc_hd__mux2_1
*I *159:Q O *D sky130_fd_sc_hd__dfrtp_2
*CAP
1 pad_slew[0] 0.00153056
2 *139:A 0.000197688
3 *151:A1 0.000340237
4 *159:Q 0
5 *12:8 0.00199105
6 *12:4 0.000317941
7 pad_slew[0] pad_slew[1] 0.000320321
8 pad_slew[0] *149:A0 0
9 pad_slew[0] *150:A0 5.53549e-06
10 pad_slew[0] *151:A0 2.57272e-05
11 pad_slew[0] *153:A0 0.000136962
12 *139:A *143:A 0.000381318
13 *139:A *159:RESET_B 3.64998e-06
14 *139:A *13:12 5.4003e-05
15 *139:A *33:19 7.24676e-05
16 *139:A *33:29 0.000115892
17 *139:A *33:43 0.000301693
18 *151:A1 *150:A0 0.000476887
19 *151:A1 *151:A0 8.65961e-05
20 *151:A1 *151:S 2.30292e-05
21 *151:A1 *33:9 0
22 *151:A1 *33:19 0
23 *12:8 *159:RESET_B 4.82792e-05
24 pad_schmitt_en pad_slew[0] 0.000314974
25 pad_schmitt_en *139:A 9.4367e-05
*RES
1 *159:Q *12:4 1.6 
2 *12:4 *12:8 3.83 
3 *12:8 *151:A1 10.965 
4 *12:8 pad_slew[0] 4.08917 
5 *12:4 *139:A 12.53 
*END

*D_NET *13 0.00537183
*CONN
*P pad_slew[1] O
*I *152:A1 I *D sky130_fd_sc_hd__mux2_1
*I *140:A I *D sky130_fd_sc_hd__and2_2
*I *160:Q O *D sky130_fd_sc_hd__dfrtp_2
*CAP
1 pad_slew[1] 0.00103316
2 *152:A1 0
3 *140:A 0
4 *160:Q 0.000146557
5 *13:24 0.00154921
6 *13:12 0.000662606
7 pad_slew[1] *140:B 0.00010176
8 pad_slew[1] *144:B 0.000135896
9 pad_slew[1] *147:C_N 3.96657e-05
10 pad_slew[1] *149:A0 0.000130837
11 pad_slew[1] *158:D 0.000148949
12 pad_slew[1] *159:CLK 0
13 pad_slew[1] *161:D 0
14 pad_slew[1] *168:A 0
15 pad_slew[1] *14:9 6.95349e-05
16 pad_slew[1] *15:9 0
17 pad_slew[1] *33:71 0
18 pad_slew[1] *47:53 0.000268797
19 pad_slew[1] *51:29 0
20 *13:12 *152:A0 7.00889e-06
21 *13:12 *33:43 0.000187766
22 *13:12 *47:60 1.61831e-05
23 *13:24 reg_rdata[4] 4.77719e-05
24 *13:24 *152:A0 3.00381e-05
25 *13:24 *153:A0 0.000112058
26 *13:24 *153:A1 5.24241e-05
27 *13:24 *161:D 4.60061e-05
28 *13:24 *47:53 0.000102011
29 *13:24 *47:60 5.41685e-05
30 pad_schmitt_en *13:12 5.50989e-05
31 pad_slew[0] pad_slew[1] 0.000320321
32 *139:A *13:12 5.4003e-05
*RES
1 *160:Q *13:12 8.885 
2 *13:12 *13:24 8.55 
3 *13:24 pad_slew[1] 13.0382 
4 *13:24 *140:A 1.6 
5 *13:12 *152:A1 1.6 
*END

*D_NET *14 0.00197721
*CONN
*P reg_addr[0] I
*I *147:B I *D sky130_fd_sc_hd__or3b_2
*I *134:B I *D sky130_fd_sc_hd__nor2_2
*I *135:B I *D sky130_fd_sc_hd__and2b_2
*CAP
1 reg_addr[0] 0.000131474
2 *147:B 9.07855e-05
3 *134:B 4.66227e-05
4 *135:B 0.00019334
5 *14:24 0.000553903
6 *14:9 0.000741308
7 *134:B *147:A 1.80702e-05
8 *147:B *147:A 4.21084e-05
9 *14:9 *15:9 7.56675e-05
10 *14:24 *147:A 1.4399e-05
11 *14:24 *15:9 0
12 *14:24 *15:20 0
13 pad_slew[1] *14:9 6.95349e-05
*RES
1 reg_addr[0] *14:9 1.4435 
2 *14:9 *135:B 6.12 
3 *14:9 *14:24 7.76 
4 *14:24 *134:B 2.47 
5 *14:24 *147:B 2.74 
*END

*D_NET *15 0.00194622
*CONN
*P reg_addr[1] I
*I *147:A I *D sky130_fd_sc_hd__or3b_2
*I *134:A I *D sky130_fd_sc_hd__nor2_2
*I *135:A_N I *D sky130_fd_sc_hd__and2b_2
*CAP
1 reg_addr[1] 0.000336486
2 *147:A 0.000170666
3 *134:A 0
4 *135:A_N 0
5 *15:20 0.000377659
6 *15:9 0.000543479
7 *15:9 reg_rdata[0] 0.000114342
8 *15:9 *138:B 7.66727e-05
9 *15:20 *138:B 0.000100154
10 pad_slew[1] *15:9 0
11 *134:B *147:A 1.80702e-05
12 *147:B *147:A 4.21084e-05
13 *10:8 *15:20 7.65181e-05
14 *14:9 *15:9 7.56675e-05
15 *14:24 *147:A 1.4399e-05
16 *14:24 *15:9 0
17 *14:24 *15:20 0
*RES
1 reg_addr[1] *15:9 4.48157 
2 *15:9 *135:A_N 3.6 
3 *15:9 *15:20 6.44 
4 *15:20 *134:A 1.6 
5 *15:20 *147:A 4.6 
*END

*D_NET *16 0.00396758
*CONN
*P reg_rdata[0] O
*I *136:X O *D sky130_fd_sc_hd__a22o_2
*CAP
1 reg_rdata[0] 0.000857
2 *136:X 0.000857
3 reg_rdata[0] reg_rdata[1] 0.000442493
4 reg_rdata[0] reg_rdata[2] 0.000289308
5 reg_rdata[0] *136:A2 3.75356e-05
6 reg_rdata[0] *137:A2 7.23635e-05
7 reg_rdata[0] *137:B1 2.59835e-05
8 reg_rdata[0] *145:S 0.000254588
9 reg_rdata[0] *149:A0 4.62449e-05
10 reg_rdata[0] *44:38 0.000270415
11 pad_pd_en reg_rdata[0] 0.000234714
12 *136:A1 reg_rdata[0] 5.05437e-05
13 *137:A1 reg_rdata[0] 1.03323e-05
14 *137:B2 reg_rdata[0] 8.14685e-05
15 *149:A1 reg_rdata[0] 3.67779e-05
16 *9:21 reg_rdata[0] 0.000269659
17 *10:12 reg_rdata[0] 1.68065e-05
18 *15:9 reg_rdata[0] 0.000114342
*RES
1 *136:X reg_rdata[0] 21.574 
*END

*D_NET *17 0.00371816
*CONN
*P reg_rdata[1] O
*I *137:X O *D sky130_fd_sc_hd__a22o_2
*CAP
1 reg_rdata[1] 0.00087025
2 *137:X 0.00087025
3 reg_rdata[1] reg_rdata[2] 0.000227902
4 reg_rdata[1] *149:A0 0.000409179
5 reg_rdata[1] *155:A0 0.000293284
6 reg_rdata[1] *33:71 0
7 reg_rdata[1] *47:23 0.000508615
8 pad_pd_en reg_rdata[1] 9.619e-05
9 reg_rdata[0] reg_rdata[1] 0.000442493
*RES
1 *137:X reg_rdata[1] 20.7438 
*END

*D_NET *18 0.00270237
*CONN
*P reg_rdata[2] O
*I *138:X O *D sky130_fd_sc_hd__and2_2
*CAP
1 reg_rdata[2] 0.00104078
2 *138:X 0.00104078
3 reg_rdata[2] *138:B 5.30673e-05
4 reg_rdata[2] *145:S 5.05437e-05
5 reg_rdata[0] reg_rdata[2] 0.000289308
6 reg_rdata[1] reg_rdata[2] 0.000227902
*RES
1 *138:X reg_rdata[2] 16.7458 
*END

*D_NET *19 0.00275662
*CONN
*P reg_rdata[3] O
*I *139:X O *D sky130_fd_sc_hd__and2_2
*CAP
1 reg_rdata[3] 0.000927125
2 *139:X 0.000927125
3 reg_rdata[3] reg_rdata[6] 0.000331213
4 reg_rdata[3] reg_rdata[7] 6.06899e-05
5 reg_rdata[3] *142:B 0.000141599
6 reg_rdata[3] *152:A0 0.000111885
7 reg_rdata[3] *154:S 0
8 *154:A1 reg_rdata[3] 0.000196994
9 *11:10 reg_rdata[3] 5.99925e-05
*RES
1 *139:X reg_rdata[3] 21.3416 
*END

*D_NET *20 0.0028885
*CONN
*P reg_rdata[4] O
*I *140:X O *D sky130_fd_sc_hd__and2_2
*CAP
1 reg_rdata[4] 0.000870013
2 *140:X 0.000870013
3 reg_rdata[4] reg_rdata[5] 0.000108498
4 reg_rdata[4] reg_rdata[7] 7.31562e-05
5 reg_rdata[4] *140:B 4.42983e-05
6 reg_rdata[4] *153:A0 0
7 reg_rdata[4] *51:29 6.52928e-05
8 pad_schmitt_en reg_rdata[4] 0.00080946
9 *13:24 reg_rdata[4] 4.77719e-05
*RES
1 *140:X reg_rdata[4] 8.33497 
*END

*D_NET *21 0.000793433
*CONN
*P reg_rdata[5] O
*I *141:X O *D sky130_fd_sc_hd__and2_2
*CAP
1 reg_rdata[5] 0.000247231
2 *141:X 0.000247231
3 reg_rdata[5] *141:B 9.79242e-05
4 reg_rdata[5] *153:A0 9.25475e-05
5 reg_rdata[4] reg_rdata[5] 0.000108498
*RES
1 *141:X reg_rdata[5] 7.45503 
*END

*D_NET *22 0.00139237
*CONN
*P reg_rdata[6] O
*I *142:X O *D sky130_fd_sc_hd__and2_2
*CAP
1 reg_rdata[6] 0.000442401
2 *142:X 0.000442401
3 reg_rdata[6] *147:C_N 9.25475e-05
4 reg_rdata[6] *154:A0 8.38041e-05
5 reg_rdata[3] reg_rdata[6] 0.000331213
*RES
1 *142:X reg_rdata[6] 11.535 
*END

*D_NET *23 0.000873438
*CONN
*P reg_rdata[7] O
*I *143:X O *D sky130_fd_sc_hd__and2_2
*CAP
1 reg_rdata[7] 0.000285794
2 *143:X 0.000285794
3 reg_rdata[7] *142:B 2.84224e-05
4 reg_rdata[7] *148:A0 9.25475e-05
5 reg_rdata[7] *44:76 4.70343e-05
6 reg_rdata[3] reg_rdata[7] 6.06899e-05
7 reg_rdata[4] reg_rdata[7] 7.31562e-05
*RES
1 *143:X reg_rdata[7] 7.96503 
*END

*D_NET *24 0.00275821
*CONN
*P reg_wdata[0] I
*I *148:A0 I *D sky130_fd_sc_hd__mux2_1
*CAP
1 reg_wdata[0] 0.000951107
2 *148:A0 0.000951107
3 *148:A0 *147:C_N 0.000213022
4 *148:A0 *148:S 0.000111705
5 *148:A0 *156:D 0.000106494
6 *148:A0 *169:A 0.000332224
7 reg_rdata[7] *148:A0 9.25475e-05
*RES
1 reg_wdata[0] *148:A0 11.4369 
*END

*D_NET *25 0.0040749
*CONN
*P reg_wdata[1] I
*I *149:A0 I *D sky130_fd_sc_hd__mux2_1
*CAP
1 reg_wdata[1] 0.00140293
2 *149:A0 0.00140293
3 *149:A0 *150:A0 8.05018e-05
4 *149:A0 *151:A0 0.000264705
5 pad_pd_en *149:A0 6.95753e-05
6 pad_slew[0] *149:A0 0
7 pad_slew[1] *149:A0 0.000130837
8 reg_rdata[0] *149:A0 4.62449e-05
9 reg_rdata[1] *149:A0 0.000409179
10 *9:21 *149:A0 0.000267992
*RES
1 reg_wdata[1] *149:A0 11.9878 
*END

*D_NET *26 0.00391027
*CONN
*P reg_wdata[2] I
*I *150:A0 I *D sky130_fd_sc_hd__mux2_1
*CAP
1 reg_wdata[2] 0.00117682
2 *150:A0 0.00117682
3 *150:A0 *147:C_N 9.06877e-05
4 *150:A0 *151:A0 0.000340565
5 *150:A0 *153:A0 4.01535e-05
6 *150:A0 *155:A0 0.000217721
7 *150:A0 *159:CLK 1.1467e-05
8 *150:A0 *159:D 0.000293107
9 *150:A0 *168:A 0
10 *150:A0 *33:9 0
11 *150:A0 *33:29 0
12 pad_slew[0] *150:A0 5.53549e-06
13 *149:A0 *150:A0 8.05018e-05
14 *151:A1 *150:A0 0.000476887
*RES
1 reg_wdata[2] *150:A0 20.0925 
*END

*D_NET *27 0.00236568
*CONN
*P reg_wdata[3] I
*I *151:A0 I *D sky130_fd_sc_hd__mux2_1
*CAP
1 reg_wdata[3] 0.000489144
2 *151:A0 0.000489144
3 *151:A0 *151:S 0.000158066
4 *151:A0 *153:A0 0.000198259
5 *151:A0 *159:D 0.000280718
6 *151:A0 *170:A 3.27519e-05
7 pad_slew[0] *151:A0 2.57272e-05
8 *149:A0 *151:A0 0.000264705
9 *150:A0 *151:A0 0.000340565
10 *151:A1 *151:A0 8.65961e-05
*RES
1 reg_wdata[3] *151:A0 11.0308 
*END

*D_NET *28 0.00332978
*CONN
*P reg_wdata[4] I
*I *152:A0 I *D sky130_fd_sc_hd__mux2_1
*CAP
1 reg_wdata[4] 0.00093219
2 *152:A0 0.00093219
3 *152:A0 *147:C_N 0
4 *152:A0 *154:A0 0.000546473
5 *152:A0 *154:S 0.000196611
6 *152:A0 *162:D 0
7 *152:A0 *33:43 1.07797e-05
8 *152:A0 *47:60 4.82863e-05
9 *152:A0 *47:64 0.000514318
10 reg_rdata[3] *152:A0 0.000111885
11 *13:12 *152:A0 7.00889e-06
12 *13:24 *152:A0 3.00381e-05
*RES
1 reg_wdata[4] *152:A0 20.4727 
*END

*D_NET *29 0.00268374
*CONN
*P reg_wdata[5] I
*I *153:A0 I *D sky130_fd_sc_hd__mux2_1
*CAP
1 reg_wdata[5] 0.000772926
2 *153:A0 0.000772926
3 *153:A0 *147:C_N 0.000397864
4 *153:A0 *153:A1 4.89295e-05
5 *153:A0 *168:A 0
6 *153:A0 *169:A 0
7 *153:A0 *47:53 2.58336e-05
8 *153:A0 *47:60 8.52845e-05
9 pad_schmitt_en *153:A0 0
10 pad_slew[0] *153:A0 0.000136962
11 reg_rdata[4] *153:A0 0
12 reg_rdata[5] *153:A0 9.25475e-05
13 *150:A0 *153:A0 4.01535e-05
14 *151:A0 *153:A0 0.000198259
15 *13:24 *153:A0 0.000112058
*RES
1 reg_wdata[5] *153:A0 13.219 
*END

*D_NET *30 0.00161324
*CONN
*P reg_wdata[6] I
*I *154:A0 I *D sky130_fd_sc_hd__mux2_1
*CAP
1 reg_wdata[6] 0.000491481
2 *154:A0 0.000491481
3 *154:A0 *147:C_N 0
4 reg_rdata[6] *154:A0 8.38041e-05
5 *152:A0 *154:A0 0.000546473
*RES
1 reg_wdata[6] *154:A0 9.37097 
*END

*D_NET *31 0.00252118
*CONN
*P reg_wdata[7] I
*I *155:A0 I *D sky130_fd_sc_hd__mux2_1
*CAP
1 reg_wdata[7] 0.000923744
2 *155:A0 0.000923744
3 *155:A0 *33:9 0.000162685
4 reg_rdata[1] *155:A0 0.000293284
5 *150:A0 *155:A0 0.000217721
*RES
1 reg_wdata[7] *155:A0 10.1792 
*END

*D_NET *32 0.00546513
*CONN
*P reg_we I
*I *147:C_N I *D sky130_fd_sc_hd__or3b_2
*CAP
1 reg_we 0.00177482
2 *147:C_N 0.00177482
3 *147:C_N *144:A 4.8854e-05
4 *147:C_N *158:D 5.87521e-05
5 *147:C_N *160:D 0.00011852
6 *147:C_N *161:CLK 1.52352e-05
7 *147:C_N *161:D 4.82863e-05
8 *147:C_N *162:D 0.000194097
9 *147:C_N *168:A 0
10 *147:C_N *169:A 0
11 *147:C_N *33:29 0
12 *147:C_N *33:43 0
13 *147:C_N *47:10 0.000123225
14 *147:C_N *47:17 0.000153816
15 *147:C_N *47:39 0.000197269
16 *147:C_N *50:16 0
17 *147:C_N *51:8 3.09247e-05
18 pad_slew[1] *147:C_N 3.96657e-05
19 reg_rdata[6] *147:C_N 9.25475e-05
20 *148:A0 *147:C_N 0.000213022
21 *149:A1 *147:C_N 6.97034e-05
22 *150:A0 *147:C_N 9.06877e-05
23 *150:A1 *147:C_N 2.30292e-05
24 *152:A0 *147:C_N 0
25 *153:A0 *147:C_N 0.000397864
26 *154:A0 *147:C_N 0
*RES
1 reg_we *147:C_N 33.4808 
*END

*D_NET *33 0.0099622
*CONN
*P rst_n I
*I *162:RESET_B I *D sky130_fd_sc_hd__dfrtp_2
*I *164:RESET_B I *D sky130_fd_sc_hd__dfrtp_2
*I *165:RESET_B I *D sky130_fd_sc_hd__dfrtp_2
*I *157:RESET_B I *D sky130_fd_sc_hd__dfrtp_2
*I *158:RESET_B I *D sky130_fd_sc_hd__dfrtp_2
*I *156:RESET_B I *D sky130_fd_sc_hd__dfrtp_2
*I *160:RESET_B I *D sky130_fd_sc_hd__dfrtp_2
*I *161:RESET_B I *D sky130_fd_sc_hd__dfrtp_2
*I *159:RESET_B I *D sky130_fd_sc_hd__dfrtp_2
*I *163:RESET_B I *D sky130_fd_sc_hd__dfrtp_2
*CAP
1 rst_n 0.000836337
2 *162:RESET_B 0.00012424
3 *164:RESET_B 0.000238207
4 *165:RESET_B 2.89421e-05
5 *157:RESET_B 0.000229074
6 *158:RESET_B 0.000102824
7 *156:RESET_B 0.000881708
8 *160:RESET_B 1.87475e-05
9 *161:RESET_B 2.69083e-05
10 *159:RESET_B 6.56764e-05
11 *163:RESET_B 3.24164e-05
12 *33:71 0.000662036
13 *33:69 0.000397593
14 *33:67 0.000397134
15 *33:47 0.000811491
16 *33:43 0.000452507
17 *33:29 0.000386262
18 *33:19 0.000267438
19 *33:9 0.00100798
20 *156:RESET_B *156:D 0.000271593
21 *156:RESET_B *160:D 0.000113623
22 *156:RESET_B *50:34 3.99836e-05
23 *158:RESET_B *158:D 0
24 *158:RESET_B *47:23 2.87867e-05
25 *161:RESET_B *51:8 1.23607e-05
26 *162:RESET_B *47:64 9.31617e-05
27 *165:RESET_B *165:CLK 0.000116502
28 *165:RESET_B *44:46 6.62074e-05
29 *33:9 *143:A 1.01152e-05
30 *33:9 *52:14 0.000149565
31 *33:19 *143:A 9.56976e-05
32 *33:43 *47:64 0.000209179
33 *33:67 *164:D 1.26626e-05
34 *33:67 *50:34 0.000133763
35 *33:67 *50:36 5.4003e-05
36 *33:69 *161:CLK 2.92496e-05
37 *33:69 *164:D 4.31189e-05
38 *33:69 *50:36 6.21553e-05
39 *33:71 *157:D 6.5525e-05
40 *33:71 *158:D 0
41 *33:71 *161:CLK 0.000201019
42 *33:71 *164:D 8.44011e-05
43 *33:71 *47:23 3.3606e-05
44 *33:71 *47:53 9.65655e-05
45 core_din *33:67 0
46 pad_pd_en *33:67 0
47 pad_pd_en *33:71 0
48 pad_schmitt_en *33:43 0
49 pad_slew[1] *33:71 0
50 reg_rdata[1] *33:71 0
51 *139:A *159:RESET_B 3.64998e-06
52 *139:A *33:19 7.24676e-05
53 *139:A *33:29 0.000115892
54 *139:A *33:43 0.000301693
55 *147:C_N *33:29 0
56 *147:C_N *33:43 0
57 *150:A0 *33:9 0
58 *150:A0 *33:29 0
59 *151:A1 *33:9 0
60 *151:A1 *33:19 0
61 *152:A0 *33:43 1.07797e-05
62 *154:A1 *162:RESET_B 8.08153e-06
63 *155:A0 *33:9 0.000162685
64 *167:A *33:67 5.18691e-05
65 *11:10 *162:RESET_B 8.66976e-06
66 *11:10 *33:43 0
67 *12:8 *159:RESET_B 4.82792e-05
68 *13:12 *33:43 0.000187766
*RES
1 rst_n *33:9 11.6579 
2 *33:9 *163:RESET_B 2.3975 
3 *33:9 *33:19 2.91 
4 *33:19 *159:RESET_B 3.0875 
5 *33:19 *33:29 1.38 
6 *33:29 *161:RESET_B 2.3975 
7 *33:29 *33:43 7.545 
8 *33:43 *33:47 2.45 
9 *33:47 *160:RESET_B 0.3975 
10 *33:47 *156:RESET_B 9.8475 
11 *156:RESET_B *33:67 5.165 
12 *33:67 *33:69 1.125 
13 *33:69 *33:71 7.245 
14 *33:71 *158:RESET_B 3.6275 
15 *33:71 *157:RESET_B 4.8275 
16 *33:69 *165:RESET_B 3.0875 
17 *33:67 *164:RESET_B 4.9325 
18 *33:43 *162:RESET_B 4.3325 
*END

*D_NET *34 0.000923715
*CONN
*I *164:D I *D sky130_fd_sc_hd__dfrtp_2
*I *144:X O *D sky130_fd_sc_hd__and2_2
*CAP
1 *164:D 0.000356906
2 *144:X 0.000356906
3 *164:D *161:CLK 6.97202e-05
4 pad_pd_en *164:D 0
5 *33:67 *164:D 1.26626e-05
6 *33:69 *164:D 4.31189e-05
7 *33:71 *164:D 8.44011e-05
*RES
1 *144:X *164:D 12.54 
*END

*D_NET *35 0.000742448
*CONN
*I *165:D I *D sky130_fd_sc_hd__dfrtp_2
*I *146:X O *D sky130_fd_sc_hd__and2_2
*CAP
1 *165:D 0.000287521
2 *146:X 0.000287521
3 *165:D *146:B 2.87867e-05
4 pad_pu_en *165:D 4.20366e-05
5 *136:A1 *165:D 0
6 *145:A1 *165:D 7.23602e-05
7 *6:13 *165:D 2.42236e-05
*RES
1 *146:X *165:D 12.405 
*END

*D_NET *36 0.00136052
*CONN
*I *156:D I *D sky130_fd_sc_hd__dfrtp_2
*I *148:X O *D sky130_fd_sc_hd__mux2_1
*CAP
1 *156:D 0.000320482
2 *148:X 0.000320482
3 *156:D *146:A 0.000114492
4 *156:D *148:S 9.06574e-05
5 *156:D *160:D 7.00889e-06
6 *156:D *169:A 2.51747e-05
7 *156:D *50:24 4.2444e-05
8 *156:D *50:26 2.68464e-05
9 *156:D *50:34 3.48421e-05
10 *148:A0 *156:D 0.000106494
11 *156:RESET_B *156:D 0.000271593
12 *167:A *156:D 0
*RES
1 *148:X *156:D 14.37 
*END

*D_NET *37 0.000370027
*CONN
*I *157:D I *D sky130_fd_sc_hd__dfrtp_2
*I *149:X O *D sky130_fd_sc_hd__mux2_1
*CAP
1 *157:D 6.8012e-05
2 *149:X 6.8012e-05
3 *157:D *47:23 0.000120186
4 *150:A1 *157:D 4.82919e-05
5 *33:71 *157:D 6.5525e-05
*RES
1 *149:X *157:D 9.03 
*END

*D_NET *38 0.000795467
*CONN
*I *158:D I *D sky130_fd_sc_hd__dfrtp_2
*I *150:X O *D sky130_fd_sc_hd__mux2_1
*CAP
1 *158:D 0.000293883
2 *150:X 0.000293883
3 *158:D *47:23 0
4 *158:D *49:23 0
5 pad_slew[1] *158:D 0.000148949
6 *147:C_N *158:D 5.87521e-05
7 *158:RESET_B *158:D 0
8 *33:71 *158:D 0
*RES
1 *150:X *158:D 11.85 
*END

*D_NET *39 0.00151451
*CONN
*I *159:D I *D sky130_fd_sc_hd__dfrtp_2
*I *151:X O *D sky130_fd_sc_hd__mux2_1
*CAP
1 *159:D 0.000408218
2 *151:X 0.000408218
3 *159:D *159:CLK 5.83121e-06
4 *159:D *163:D 0
5 *159:D *170:A 7.01303e-05
6 *159:D *52:14 4.82863e-05
7 *150:A0 *159:D 0.000293107
8 *151:A0 *159:D 0.000280718
*RES
1 *151:X *159:D 15.975 
*END

*D_NET *40 0.000675874
*CONN
*I *160:D I *D sky130_fd_sc_hd__dfrtp_2
*I *152:X O *D sky130_fd_sc_hd__mux2_1
*CAP
1 *160:D 0.000218361
2 *152:X 0.000218361
3 *147:C_N *160:D 0.00011852
4 *156:D *160:D 7.00889e-06
5 *156:RESET_B *160:D 0.000113623
*RES
1 *152:X *160:D 11.445 
*END

*D_NET *41 0.00112781
*CONN
*I *161:D I *D sky130_fd_sc_hd__dfrtp_2
*I *153:X O *D sky130_fd_sc_hd__mux2_1
*CAP
1 *161:D 0.000199163
2 *153:X 0.000199163
3 *161:D *144:A 5.18093e-05
4 *161:D *168:A 0.000162325
5 *161:D *169:A 0.000168654
6 *161:D *51:8 1.1392e-05
7 *161:D *51:29 0.000241014
8 pad_slew[1] *161:D 0
9 *147:C_N *161:D 4.82863e-05
10 *13:24 *161:D 4.60061e-05
*RES
1 *153:X *161:D 12.375 
*END

*D_NET *42 0.000929
*CONN
*I *162:D I *D sky130_fd_sc_hd__dfrtp_2
*I *154:X O *D sky130_fd_sc_hd__mux2_1
*CAP
1 *162:D 0.000353602
2 *154:X 0.000353602
3 *162:D *50:16 2.76983e-05
4 *147:C_N *162:D 0.000194097
5 *152:A0 *162:D 0
*RES
1 *154:X *162:D 12.3337 
*END

*D_NET *43 0.00167119
*CONN
*I *163:D I *D sky130_fd_sc_hd__dfrtp_2
*I *155:X O *D sky130_fd_sc_hd__mux2_1
*CAP
1 *163:D 0.000490695
2 *155:X 0.000490695
3 *163:D *168:A 0.00011686
4 *163:D *49:12 2.33395e-05
5 *163:D *49:23 8.30386e-05
6 *163:D *52:14 0.00046656
7 *159:D *163:D 0
*RES
1 *155:X *163:D 15.06 
*END

*D_NET *44 0.00740523
*CONN
*I *137:A2 I *D sky130_fd_sc_hd__a22o_2
*I *143:B I *D sky130_fd_sc_hd__and2_2
*I *142:B I *D sky130_fd_sc_hd__and2_2
*I *139:B I *D sky130_fd_sc_hd__and2_2
*I *141:B I *D sky130_fd_sc_hd__and2_2
*I *140:B I *D sky130_fd_sc_hd__and2_2
*I *136:A2 I *D sky130_fd_sc_hd__a22o_2
*I *138:B I *D sky130_fd_sc_hd__and2_2
*I *134:Y O *D sky130_fd_sc_hd__nor2_2
*CAP
1 *137:A2 0.000146529
2 *143:B 2.946e-05
3 *142:B 8.60905e-05
4 *139:B 3.76639e-05
5 *141:B 0.000178614
6 *140:B 0.000100857
7 *136:A2 1.64881e-05
8 *138:B 0.000371538
9 *134:Y 0
10 *44:76 0.000186499
11 *44:63 0.000241359
12 *44:61 0.000661832
13 *44:46 0.00108069
14 *44:38 0.000754798
15 *44:19 0.000351475
16 *44:6 0.000445714
17 *138:B *145:S 0
18 *138:B *45:12 0
19 *140:B *51:29 0
20 *141:B *141:A 0.000230658
21 *141:B *143:A 4.69655e-05
22 *44:19 *145:S 0
23 *44:19 *45:12 0
24 *44:46 *144:B 0.000127557
25 *44:46 *145:S 0.000116182
26 *44:46 *165:CLK 0.000100459
27 *44:61 *143:A 4.66108e-05
28 *44:61 *48:8 3.30017e-05
29 pad_pu_en *44:19 5.4003e-05
30 pad_pu_en *44:38 5.31042e-05
31 pad_schmitt_en *141:B 3.72899e-05
32 pad_schmitt_en *142:B 0.000179235
33 pad_schmitt_en *44:76 0.000152111
34 pad_slew[1] *140:B 0.00010176
35 reg_rdata[0] *136:A2 3.75356e-05
36 reg_rdata[0] *137:A2 7.23635e-05
37 reg_rdata[0] *44:38 0.000270415
38 reg_rdata[2] *138:B 5.30673e-05
39 reg_rdata[3] *142:B 0.000141599
40 reg_rdata[4] *140:B 4.42983e-05
41 reg_rdata[5] *141:B 9.79242e-05
42 reg_rdata[7] *142:B 2.84224e-05
43 reg_rdata[7] *44:76 4.70343e-05
44 *136:A1 *44:38 0
45 *137:B2 *137:A2 1.85674e-05
46 *137:B2 *44:46 6.98515e-05
47 *138:A *138:B 0
48 *165:RESET_B *44:46 6.62074e-05
49 *10:8 *138:B 0.000157608
50 *10:8 *44:19 8.48411e-05
51 *10:12 *136:A2 3.75356e-05
52 *11:10 *142:B 3.25831e-05
53 *15:9 *138:B 7.66727e-05
54 *15:20 *138:B 0.000100154
*RES
1 *134:Y *44:6 3.6 
2 *44:6 *138:B 11.475 
3 *44:6 *44:19 1.635 
4 *44:19 *136:A2 4.2 
5 *44:19 *44:38 5.945 
6 *44:38 *44:46 11.005 
7 *44:46 *140:B 7.745 
8 *44:46 *44:61 9.09 
9 *44:61 *44:63 2 
10 *44:63 *141:B 8.235 
11 *44:63 *44:76 1.89 
12 *44:76 *139:B 4.05 
13 *44:76 *142:B 6.45 
14 *44:61 *143:B 2.05 
15 *44:38 *137:A2 3.73375 
*END

*D_NET *45 0.00131036
*CONN
*I *137:B1 I *D sky130_fd_sc_hd__a22o_2
*I *136:B1 I *D sky130_fd_sc_hd__a22o_2
*I *135:X O *D sky130_fd_sc_hd__and2b_2
*CAP
1 *137:B1 4.15143e-05
2 *136:B1 0
3 *135:X 0.000341255
4 *45:12 0.000382769
5 *45:12 *145:S 0.000168163
6 reg_rdata[0] *137:B1 2.59835e-05
7 *136:A1 *137:B1 4.82919e-05
8 *137:A1 *137:B1 4.82919e-05
9 *137:B2 *137:B1 8.65961e-05
10 *138:A *45:12 8.53113e-06
11 *138:B *45:12 0
12 *10:12 *137:B1 0.00015896
13 *44:19 *45:12 0
*RES
1 *135:X *45:12 11.6 
2 *45:12 *136:B1 1.6 
3 *45:12 *137:B1 3.43 
*END

*D_NET *46 0.000270542
*CONN
*I *146:B I *D sky130_fd_sc_hd__and2_2
*I *145:X O *D sky130_fd_sc_hd__mux2_1
*CAP
1 *146:B 8.36843e-05
2 *145:X 8.36843e-05
3 *136:A1 *146:B 2.05571e-05
4 *145:A1 *146:B 0
5 *165:D *146:B 2.87867e-05
6 *8:23 *146:B 5.38292e-05
*RES
1 *145:X *146:B 9.03 
*END

*D_NET *47 0.0105408
*CONN
*I *150:S I *D sky130_fd_sc_hd__mux2_1
*I *152:S I *D sky130_fd_sc_hd__mux2_1
*I *154:S I *D sky130_fd_sc_hd__mux2_1
*I *148:S I *D sky130_fd_sc_hd__mux2_1
*I *153:S I *D sky130_fd_sc_hd__mux2_1
*I *151:S I *D sky130_fd_sc_hd__mux2_1
*I *155:S I *D sky130_fd_sc_hd__mux2_1
*I *149:S I *D sky130_fd_sc_hd__mux2_1
*I *147:X O *D sky130_fd_sc_hd__or3b_2
*CAP
1 *150:S 0
2 *152:S 0
3 *154:S 0.000103304
4 *148:S 0.000407297
5 *153:S 0
6 *151:S 0.000381811
7 *155:S 2.90466e-05
8 *149:S 0
9 *147:X 0.000167138
10 *47:64 0.000702352
11 *47:60 0.000332816
12 *47:53 0.000872233
13 *47:39 0.000765073
14 *47:23 0.000623554
15 *47:17 0.000296716
16 *47:10 0.000217253
17 *148:S *169:A 0.000196836
18 *148:S *50:16 0.000176888
19 *151:S *52:14 0.00114014
20 *155:S *155:A1 4.82863e-05
21 *155:S *52:14 8.40213e-05
22 *47:53 *146:A 0
23 *47:53 *153:A1 6.80137e-05
24 *47:53 *161:CLK 0.000101709
25 *47:53 *51:29 0
26 pad_slew[1] *47:53 0.000268797
27 reg_rdata[1] *47:23 0.000508615
28 reg_rdata[3] *154:S 0
29 *147:C_N *47:10 0.000123225
30 *147:C_N *47:17 0.000153816
31 *147:C_N *47:39 0.000197269
32 *148:A0 *148:S 0.000111705
33 *148:A1 *148:S 4.82919e-05
34 *150:A1 *47:17 0.000118081
35 *150:A1 *47:39 0.000188069
36 *151:A0 *151:S 0.000158066
37 *151:A1 *151:S 2.30292e-05
38 *152:A0 *154:S 0.000196611
39 *152:A0 *47:60 4.82863e-05
40 *152:A0 *47:64 0.000514318
41 *153:A0 *47:53 2.58336e-05
42 *153:A0 *47:60 8.52845e-05
43 *154:A1 *154:S 0
44 *154:A1 *47:64 0
45 *156:D *148:S 9.06574e-05
46 *157:D *47:23 0.000120186
47 *158:D *47:23 0
48 *158:RESET_B *47:23 2.87867e-05
49 *162:RESET_B *47:64 9.31617e-05
50 *167:A *47:53 0.000212505
51 *13:12 *47:60 1.61831e-05
52 *13:24 *47:53 0.000102011
53 *13:24 *47:60 5.41685e-05
54 *33:43 *47:64 0.000209179
55 *33:71 *47:23 3.3606e-05
56 *33:71 *47:53 9.65655e-05
*RES
1 *147:X *47:10 4.405 
2 *47:10 *149:S 1.6 
3 *47:10 *47:17 1.485 
4 *47:17 *47:23 9.97 
5 *47:23 *155:S 2.395 
6 *47:23 *151:S 12.055 
7 *47:17 *47:39 1.83 
8 *47:39 *47:53 17.44 
9 *47:53 *153:S 1.6 
10 *47:53 *47:60 2.865 
11 *47:60 *47:64 7.97 
12 *47:64 *148:S 11.985 
13 *47:64 *154:S 6 
14 *47:60 *152:S 1.6 
15 *47:39 *150:S 1.6 
*END

*D_NET *48 0.00371242
*CONN
*I *169:A I *D sky130_fd_sc_hd__clkbuf_16
*I *168:A I *D sky130_fd_sc_hd__clkbuf_16
*I *167:X O *D sky130_fd_sc_hd__clkbuf_16
*CAP
1 *169:A 0.000449694
2 *168:A 0.000507496
3 *167:X 6.36456e-05
4 *48:8 0.00102084
5 *168:A *158:CLK 4.88478e-05
6 *168:A *159:CLK 7.01334e-05
7 *168:A *49:12 3.21822e-05
8 *168:A *49:23 6.94735e-06
9 *169:A *146:A 0.000312785
10 *169:A *50:16 0.000110838
11 *169:A *51:29 5.39431e-05
12 pad_slew[1] *168:A 0
13 *147:C_N *168:A 0
14 *147:C_N *169:A 0
15 *148:A0 *169:A 0.000332224
16 *148:S *169:A 0.000196836
17 *150:A0 *168:A 0
18 *153:A0 *168:A 0
19 *153:A0 *169:A 0
20 *156:D *169:A 2.51747e-05
21 *161:D *168:A 0.000162325
22 *161:D *169:A 0.000168654
23 *163:D *168:A 0.00011686
24 *44:61 *48:8 3.30017e-05
*RES
1 *167:X *48:8 4.395 
2 *48:8 *168:A 12.675 
3 *48:8 *169:A 14.46 
*END

*D_NET *49 0.00282719
*CONN
*I *170:A I *D sky130_fd_sc_hd__clkbuf_8
*I *159:CLK I *D sky130_fd_sc_hd__dfrtp_2
*I *163:CLK I *D sky130_fd_sc_hd__dfrtp_2
*I *157:CLK I *D sky130_fd_sc_hd__dfrtp_2
*I *158:CLK I *D sky130_fd_sc_hd__dfrtp_2
*I *168:X O *D sky130_fd_sc_hd__clkbuf_16
*CAP
1 *170:A 8.61379e-05
2 *159:CLK 0.000244216
3 *163:CLK 0
4 *157:CLK 0.000250204
5 *158:CLK 8.40089e-05
6 *168:X 0.00015073
7 *49:25 0.000250204
8 *49:23 0.00035566
9 *49:12 0.000489975
10 *49:6 0.00053139
11 pad_slew[1] *159:CLK 0
12 *150:A0 *159:CLK 1.1467e-05
13 *150:A1 *159:CLK 0
14 *151:A0 *170:A 3.27519e-05
15 *158:D *49:23 0
16 *159:D *159:CLK 5.83121e-06
17 *159:D *170:A 7.01303e-05
18 *163:D *49:12 2.33395e-05
19 *163:D *49:23 8.30386e-05
20 *168:A *158:CLK 4.88478e-05
21 *168:A *159:CLK 7.01334e-05
22 *168:A *49:12 3.21822e-05
23 *168:A *49:23 6.94735e-06
*RES
1 *168:X *49:6 3.085 
2 *49:6 *49:12 5.48 
3 *49:12 *158:CLK 5.085 
4 *49:12 *49:23 2.145 
5 *49:23 *49:25 2 
6 *49:25 *157:CLK 5.155 
7 *49:25 *163:CLK 1.6 
8 *49:23 *159:CLK 7.545 
9 *49:6 *170:A 7.235 
*END

*D_NET *50 0.00552308
*CONN
*I *162:CLK I *D sky130_fd_sc_hd__dfrtp_2
*I *160:CLK I *D sky130_fd_sc_hd__dfrtp_2
*I *156:CLK I *D sky130_fd_sc_hd__dfrtp_2
*I *164:CLK I *D sky130_fd_sc_hd__dfrtp_2
*I *165:CLK I *D sky130_fd_sc_hd__dfrtp_2
*I *161:CLK I *D sky130_fd_sc_hd__dfrtp_2
*I *169:X O *D sky130_fd_sc_hd__clkbuf_16
*CAP
1 *162:CLK 0
2 *160:CLK 0
3 *156:CLK 0
4 *164:CLK 0
5 *165:CLK 0.000658953
6 *161:CLK 0.000289992
7 *169:X 0.000405011
8 *50:36 0.000981552
9 *50:34 0.00030525
10 *50:26 0.000293021
11 *50:24 0.000180199
12 *50:16 0.000564833
13 *161:CLK *144:A 8.52845e-05
14 *50:16 *146:A 3.93101e-05
15 *50:24 *146:A 8.52883e-05
16 *147:C_N *161:CLK 1.52352e-05
17 *147:C_N *50:16 0
18 *148:S *50:16 0.000176888
19 *156:D *50:24 4.2444e-05
20 *156:D *50:26 2.68464e-05
21 *156:D *50:34 3.48421e-05
22 *156:RESET_B *50:34 3.99836e-05
23 *162:D *50:16 2.76983e-05
24 *164:D *161:CLK 6.97202e-05
25 *165:RESET_B *165:CLK 0.000116502
26 *167:A *161:CLK 3.09164e-05
27 *167:A *50:24 0
28 *167:A *50:34 0.000141592
29 *167:A *50:36 0.00011852
30 *169:A *50:16 0.000110838
31 *33:67 *50:34 0.000133763
32 *33:67 *50:36 5.4003e-05
33 *33:69 *161:CLK 2.92496e-05
34 *33:69 *50:36 6.21553e-05
35 *33:71 *161:CLK 0.000201019
36 *44:46 *165:CLK 0.000100459
37 *47:53 *161:CLK 0.000101709
*RES
1 *169:X *50:16 11.69 
2 *50:16 *50:24 6.94 
3 *50:24 *50:26 0.45 
4 *50:26 *50:34 6.77 
5 *50:34 *50:36 1.38 
6 *50:36 *161:CLK 9.81 
7 *50:36 *165:CLK 11.22 
8 *50:34 *164:CLK 3.6 
9 *50:26 *156:CLK 1.6 
10 *50:24 *160:CLK 1.6 
11 *50:16 *162:CLK 1.6 
*END

*D_NET *51 0.00539071
*CONN
*I *141:A I *D sky130_fd_sc_hd__and2_2
*I *146:A I *D sky130_fd_sc_hd__and2_2
*I *153:A1 I *D sky130_fd_sc_hd__mux2_1
*I *144:A I *D sky130_fd_sc_hd__and2_2
*I *161:Q O *D sky130_fd_sc_hd__dfrtp_2
*CAP
1 *141:A 9.65138e-05
2 *146:A 0.00078659
3 *153:A1 3.40613e-05
4 *144:A 0.000118574
5 *161:Q 0
6 *51:29 0.00100204
7 *51:8 0.000886474
8 *51:4 0.000683024
9 *141:A *143:A 0.000230658
10 pad_slew[1] *51:29 0
11 reg_rdata[4] *51:29 6.52928e-05
12 *140:B *51:29 0
13 *141:B *141:A 0.000230658
14 *147:C_N *144:A 4.8854e-05
15 *147:C_N *51:8 3.09247e-05
16 *153:A0 *153:A1 4.89295e-05
17 *156:D *146:A 0.000114492
18 *161:CLK *144:A 8.52845e-05
19 *161:D *144:A 5.18093e-05
20 *161:D *51:8 1.1392e-05
21 *161:D *51:29 0.000241014
22 *161:RESET_B *51:8 1.23607e-05
23 *169:A *146:A 0.000312785
24 *169:A *51:29 5.39431e-05
25 *13:24 *153:A1 5.24241e-05
26 *47:53 *146:A 0
27 *47:53 *153:A1 6.80137e-05
28 *47:53 *51:29 0
29 *50:16 *146:A 3.93101e-05
30 *50:24 *146:A 8.52883e-05
*RES
1 *161:Q *51:4 1.6 
2 *51:4 *51:8 8.315 
3 *51:8 *144:A 6.165 
4 *51:8 *51:29 4.23 
5 *51:29 *153:A1 4.74 
6 *51:29 *146:A 16.365 
7 *51:4 *141:A 8.705 
*END

*D_NET *52 0.0079584
*CONN
*I *143:A I *D sky130_fd_sc_hd__and2_2
*I *155:A1 I *D sky130_fd_sc_hd__mux2_1
*I *145:S I *D sky130_fd_sc_hd__mux2_1
*I *163:Q O *D sky130_fd_sc_hd__dfrtp_2
*CAP
1 *143:A 0.00024406
2 *155:A1 3.37023e-05
3 *145:S 0.000727182
4 *163:Q 0
5 *52:14 0.00145927
6 *52:6 0.000942444
7 core_din *145:S 5.53756e-05
8 pad_schmitt_en *143:A 1.79483e-05
9 reg_rdata[0] *145:S 0.000254588
10 reg_rdata[2] *145:S 5.05437e-05
11 *136:B2 *145:S 0.000755491
12 *137:B2 *145:S 0.000130192
13 *138:A *145:S 0.000132713
14 *138:B *145:S 0
15 *139:A *143:A 0.000381318
16 *141:A *143:A 0.000230658
17 *141:B *143:A 4.69655e-05
18 *149:A1 *145:S 7.23533e-05
19 *151:S *52:14 0.00114014
20 *155:S *155:A1 4.82863e-05
21 *155:S *52:14 8.40213e-05
22 *159:D *52:14 4.82863e-05
23 *163:D *52:14 0.00046656
24 *6:13 *145:S 4.99619e-05
25 *33:9 *143:A 1.01152e-05
26 *33:9 *52:14 0.000149565
27 *33:19 *143:A 9.56976e-05
28 *44:19 *145:S 0
29 *44:46 *145:S 0.000116182
30 *44:61 *143:A 4.66108e-05
31 *45:12 *145:S 0.000168163
*RES
1 *163:Q *52:6 3.6 
2 *52:6 *52:14 18.305 
3 *52:14 *145:S 24.68 
4 *52:14 *155:A1 2.395 
5 *52:6 *143:A 10.785 
*END

*D_NET *53 0.000780687
*CONN
*I *144:B I *D sky130_fd_sc_hd__and2_2
*I *165:Q O *D sky130_fd_sc_hd__dfrtp_2
*CAP
1 *144:B 0.000258617
2 *165:Q 0.000258617
3 pad_slew[1] *144:B 0.000135896
4 *44:46 *144:B 0.000127557
*RES
1 *165:Q *144:B 11.01 
*END
